LC_Name;LC_ID;qxMin;qyMin;qxyMin;qxzMin;qyzMin;qshearMin;qvonmisesMin;qxMax;qyMax;qxyMax;qxzMax;qyzMax;qshearMax;qvonmisesMax;qxAbsMax;qyAbsMax;qxyAbsMax;qxzAbsMax;qyzAbsMax;qshearAbsMax;qvonmisesAbsMax;qxAverage;qyAverage;qxyAverage;sigmaVonMisesMax;CriticalElemID
IF_CR_R1_8501009_JAM2_-55, SUBCASE 1, Case 1 Time 1.;74;-252,37;-206,15;-72,43;-3,94;-6,55;3,25;32,82;89,60;94,27;52,70;2,64;2,35;252,74;245,84;-252,37;-206,15;-72,43;-3,94;-6,55;252,74;245,84;-39,38;-29,26;-2,55;81,95;651265
IF_CR_R1_8501009_JAM2_23, SUBCASE 1, Case 1 Time 1.;73;-251,96;-205,91;-72,61;-4,30;-7,04;3,00;32,55;88,94;94,17;52,68;2,60;2,32;252,34;245,43;-251,96;-205,91;-72,61;-4,30;-7,04;252,34;245,43;-39,41;-29,12;-2,52;81,81;651265
IF_CR_R1_8501009_JAM2_82, SUBCASE 1, Case 1 Time 1.;75;-251,64;-205,71;-72,73;-4,58;-7,40;2,81;32,34;88,42;94,09;52,67;2,57;2,30;252,01;245,10;-251,64;-205,71;-72,73;-4,58;-7,40;252,01;245,10;-39,89;-29,35;-2,54;81,70;651265
IF_CR_R1_8501009_23, SUBCASE 1, Case 1 Time 1.;1;-249,13;-203,79;-72,36;-4,26;-6,95;3,25;32,24;87,66;93,77;52,42;2,43;2,21;249,51;242,64;-249,13;-203,79;-72,36;-4,26;-6,95;249,51;242,64;-38,37;-28,70;-2,46;80,88;651265
IF_CR_R1_8501009_-55, SUBCASE 1, Case 1 Time 1.;2;-249,11;-203,71;-72,14;-3,89;-6,45;3,54;32,46;88,12;93,81;52,39;2,45;2,22;249,49;242,63;-249,11;-203,71;-72,14;-3,89;-6,45;249,49;242,63;-38,78;-28,82;-2,67;80,88;651265
IF_CR_R1_8501009_82, SUBCASE 1, Case 1 Time 1.;3;-249,12;-203,82;-72,51;-4,54;-7,32;3,03;32,07;87,29;93,74;52,43;2,43;2,20;249,50;242,62;-249,12;-203,82;-72,51;-4,54;-7,32;249,50;242,62;-39,43;-29,00;-2,64;80,87;651265
IF_IP2_R4_8502005_DIS3_82, SUBCASE 1, Case 1 Time 1.;63;-184,78;-149,57;-51,96;-3,32;-5,38;2,15;24,01;65,63;68,29;37,92;2,24;1,94;185,04;180,17;-184,78;-149,57;-51,96;-3,32;-5,38;185,04;180,17;-29,23;-21,35;-1,56;60,06;651265
IF_IP2_R4_8502005_DIS3_23, SUBCASE 1, Case 1 Time 1.;61;-184,52;-149,31;-51,72;-3,04;-5,00;2,36;24,16;65,90;68,23;37,85;2,25;1,95;184,78;179,92;-184,52;-149,31;-51,72;-3,04;-5,00;184,78;179,92;-28,64;-21,03;-1,55;59,97;651265
IF_IP2_R4_8502005_DIS3_-55, SUBCASE 1, Case 1 Time 1.;62;-184,16;-148,95;-51,40;-2,67;-4,50;2,65;24,34;66,25;68,16;37,76;2,26;1,96;184,42;179,58;-184,16;-148,95;-51,40;-2,67;-4,50;184,42;179,58;-28,48;-21,08;-1,58;59,86;651265
IF_IP2_R4_8502005_JAM2M_IN_82, SUBCASE 1, Case 1 Time 1.;114;-174,63;-137,96;-43,80;-2,95;-4,93;1,52;22,48;63,91;59,50;33,76;3,43;2,72;174,85;171,26;-174,63;-137,96;-43,80;3,43;-4,93;174,85;171,26;-28,03;-20,29;-0,29;57,09;651265
IF_IP2_R4_8502005_JAM2M_IN_23, SUBCASE 1, Case 1 Time 1.;112;-174,41;-137,70;-43,52;-2,67;-4,55;1,54;22,62;64,21;59,42;33,73;3,45;2,73;174,62;171,06;-174,41;-137,70;-43,52;3,45;-4,55;174,62;171,06;-27,52;-20,03;-0,31;57,02;651265
IF_IP2_R4_8502005_JAM2M_IN_-55, SUBCASE 1, Case 1 Time 1.;113;-174,10;-137,34;-43,15;-2,65;-4,06;1,61;22,82;64,60;59,31;33,70;3,47;2,75;174,31;170,78;-174,10;-137,34;-43,15;3,47;-4,06;174,31;170,78;-27,30;-20,03;-0,29;56,93;651265
IF_IP2_R4_8502005_JAM2_82, SUBCASE 1, Case 1 Time 1.;81;-169,26;-135,93;-46,31;-3,03;-4,95;1,54;21,77;60,30;61,09;33,91;2,38;1,98;169,48;165,25;-169,26;-135,93;-46,31;-3,03;-4,95;169,48;165,25;-26,99;-19,59;-1,13;55,08;651265
IF_IP2_R4_8502005_JAM2_23, SUBCASE 1, Case 1 Time 1.;79;-168,93;-135,59;-46,01;-2,75;-4,57;1,72;21,90;60,56;60,97;33,80;2,39;2,00;169,16;164,95;-168,93;-135,59;-46,01;-2,75;-4,57;169,16;164,95;-26,54;-19,37;-1,14;54,98;651265
IF_IP2_R4_8502005_JAM2_-55, SUBCASE 1, Case 1 Time 1.;80;-168,48;-135,12;-45,59;-2,44;-4,06;1,97;22,07;60,89;60,80;33,66;2,42;2,02;168,71;164,53;-168,48;-135,12;-45,59;-2,44;-4,06;168,71;164,53;-26,22;-19,31;-1,14;54,84;651265
IF_CR_R1_8501009_DIS3_82, SUBCASE 1, Case 1 Time 1.;57;-167,97;-136,27;-48,63;-3,11;-4,98;2,14;21,58;58,58;62,87;35,22;1,67;1,48;168,21;163,70;-167,97;-136,27;-48,63;-3,11;-4,98;168,21;163,70;-26,71;-19,41;-1,73;54,57;651265
IF_CR_R1_8501009_DIS3_23, SUBCASE 1, Case 1 Time 1.;55;-167,91;-136,17;-48,45;-2,84;-4,61;2,36;21,74;58,92;62,89;35,19;1,68;1,49;168,15;163,65;-167,91;-136,17;-48,45;-2,84;-4,61;168,15;163,65;-26,14;-19,11;-1,72;54,55;651265
IF_CR_R1_8501009_DIS3_-55, SUBCASE 1, Case 1 Time 1.;56;-167,80;-136,02;-48,20;-2,48;-4,12;2,66;21,94;59,34;62,90;35,15;1,69;1,50;168,04;163,55;-167,80;-136,02;-48,20;-2,48;-4,12;168,04;163,55;-26,03;-19,20;-1,76;54,52;651265
IF_IP2_R4_8502005_82, SUBCASE 1, Case 1 Time 1.;9;-165,27;-133,42;-46,42;-3,02;-4,89;1,84;21,35;58,49;60,82;33,81;2,04;1,75;165,50;161,19;-165,27;-133,42;-46,42;-3,02;-4,89;165,50;161,19;-26,27;-19,09;-1,37;53,73;651265
IF_TO_R4_8502005_DIS3_82, SUBCASE 1, Case 1 Time 1.;66;-164,91;-133,16;-46,14;-2,97;-4,81;1,92;21,47;58,53;60,80;33,76;2,07;1,78;165,14;160,83;-164,91;-133,16;-46,14;-2,97;-4,81;165,14;160,83;-26,08;-19,01;-1,32;53,61;651265
IF_IP2_R4_8502005_23, SUBCASE 1, Case 1 Time 1.;7;-164,80;-132,99;-46,11;-2,74;-4,50;2,05;21,47;58,68;60,69;33,70;2,04;1,76;165,03;160,74;-164,80;-132,99;-46,11;-2,74;-4,50;165,03;160,74;-25,80;-18,86;-1,37;53,58;651265
IF_TO_R4_8502005_DIS3_23, SUBCASE 1, Case 1 Time 1.;64;-164,70;-132,94;-45,91;-2,69;-4,43;2,14;21,61;58,82;60,77;33,70;2,08;1,79;164,93;160,63;-164,70;-132,94;-45,91;-2,69;-4,43;164,93;160,63;-25,83;-18,95;-1,34;53,54;651265
IF_CR_R1_8501009_DIS1_82, SUBCASE 1, Case 1 Time 1.;39;-164,66;-133,49;-47,79;-2,92;-4,70;1,97;21,02;56,94;61,56;34,65;1,64;1,44;164,90;160,48;-164,66;-133,49;-47,79;-2,92;-4,70;164,90;160,48;-26,32;-19,10;-1,69;53,49;651265
IF_CR_R1_8501009_DIS1_23, SUBCASE 1, Case 1 Time 1.;37;-164,64;-133,43;-47,62;-2,65;-4,33;2,19;21,18;57,29;61,60;34,64;1,65;1,45;164,87;160,46;-164,64;-133,43;-47,62;-2,65;-4,33;164,87;160,46;-25,73;-18,78;-1,67;53,49;651265
IF_CR_R1_8501009_DIS1_-55, SUBCASE 1, Case 1 Time 1.;38;-164,58;-133,32;-47,40;-2,30;-3,85;2,49;21,40;57,73;61,63;34,61;1,66;1,46;164,81;160,42;-164,58;-133,32;-47,40;-2,30;-3,85;164,81;160,42;-25,65;-18,90;-1,73;53,47;651265
IF_TO_R4_8502005_DIS3_-55, SUBCASE 1, Case 1 Time 1.;65;-164,42;-132,64;-45,60;-2,37;-3,94;2,42;21,81;59,19;60,72;33,62;2,09;1,81;164,65;160,36;-164,42;-132,64;-45,60;-2,37;-3,94;164,65;160,36;-25,36;-18,77;-1,35;53,45;651265
IF_IP2_R4_8502005_-55, SUBCASE 1, Case 1 Time 1.;8;-164,15;-132,39;-45,70;-2,37;-4,00;2,33;21,61;58,92;60,50;33,54;2,05;1,77;164,37;160,11;-164,15;-132,39;-45,70;-2,37;-4,00;164,37;160,11;-25,44;-18,76;-1,39;53,37;651265
IF_IP2_R4_8502005_JAM2M_OUT_82, SUBCASE 1, Case 1 Time 1.;117;-162,76;-132,19;-47,35;-3,06;-4,90;2,29;21,06;56,94;61,35;34,22;1,59;1,42;162,99;158,60;-162,76;-132,19;-47,35;-3,06;-4,90;162,99;158,60;-25,81;-18,75;-1,73;52,87;651265
IF_IP2_R4_8502005_JAM2M_OUT_23, SUBCASE 1, Case 1 Time 1.;115;-162,31;-131,76;-47,01;-2,78;-4,51;2,50;21,17;57,16;61,18;34,09;1,60;1,44;162,55;158,18;-162,31;-131,76;-47,01;-2,78;-4,51;162,55;158,18;-25,51;-18,65;-1,70;52,73;651265
IF_IP2_R4_8502005_JAM2M_OUT_-55, SUBCASE 1, Case 1 Time 1.;116;-161,73;-131,17;-46,55;-2,41;-4,01;2,77;21,32;57,45;60,96;33,91;1,62;1,46;161,96;157,62;-161,73;-131,17;-46,55;-2,41;-4,01;161,96;157,62;-25,00;-18,45;-1,73;52,54;651265
IF_TO_R4_8502005_JAM2M_IN_INSF_82, SUBCASE 1, Case 1 Time 1.;120;-155,20;-122,03;-38,27;-2,54;-4,29;1,57;20,05;57,03;52,67;30,20;3,24;2,57;155,38;152,31;-155,20;-122,03;-38,27;3,24;-4,29;155,38;152,31;-24,79;-17,92;-0,12;50,77;651265
IF_TO_R4_8502005_JAM2_82, SUBCASE 1, Case 1 Time 1.;84;-155,64;-124,73;-42,27;-2,79;-4,55;1,60;20,18;55,73;56,18;31,03;2,26;1,89;155,84;151,99;-155,64;-124,73;-42,27;-2,79;-4,55;155,84;151,99;-24,71;-17,92;-0,99;50,66;651265
IF_TO_R4_8502005_JAM2M_IN_INSF_23, SUBCASE 1, Case 1 Time 1.;118;-154,81;-121,67;-37,99;-2,35;-3,90;1,59;20,30;57,26;52,58;30,12;3,24;2,58;154,99;151,94;-154,81;-121,67;-37,99;3,24;-3,90;154,99;151,94;-24,48;-17,81;-0,16;50,65;651265
IF_TO_R4_8502005_JAM2_23, SUBCASE 1, Case 1 Time 1.;82;-155,25;-124,34;-41,95;-2,51;-4,16;1,78;20,31;55,97;56,04;30,91;2,27;1,90;155,45;151,62;-155,25;-124,34;-41,95;-2,51;-4,16;155,45;151,62;-24,42;-17,83;-1,00;50,54;651265
IF_TO_R4_8502005_JAM2M_IN_INSF_-55, SUBCASE 1, Case 1 Time 1.;119;-154,29;-121,18;-37,62;-2,37;-3,40;1,67;20,47;57,55;52,46;30,01;3,25;2,59;154,47;151,44;-154,29;-121,18;-37,62;3,25;-3,40;154,47;151,44;-23,99;-17,63;-0,15;50,48;651265
IF_TO_R4_8502005_JAM2_-55, SUBCASE 1, Case 1 Time 1.;83;-154,73;-123,81;-41,52;-2,26;-3,66;2,03;20,47;56,27;55,85;30,75;2,29;1,92;154,93;151,13;-154,73;-123,81;-41,52;2,29;-3,66;154,93;151,13;-23,92;-17,63;-1,00;50,38;651265
IF_TO_R4_8502005_82, SUBCASE 1, Case 1 Time 1.;12;-152,28;-122,70;-42,43;-2,79;-4,51;1,85;19,84;54,22;56,00;30,99;1,96;1,68;152,49;148,55;-152,28;-122,70;-42,43;-2,79;-4,51;152,49;148,55;-24,09;-17,51;-1,20;49,52;651265
IF_TO_R4_8502005_23, SUBCASE 1, Case 1 Time 1.;10;-151,76;-122,23;-42,11;-2,51;-4,13;2,06;19,95;54,39;55,86;30,87;1,96;1,69;151,96;148,05;-151,76;-122,23;-42,11;-2,51;-4,13;151,96;148,05;-23,78;-17,40;-1,21;49,35;651265
IF_TO_R4_8502005_-55, SUBCASE 1, Case 1 Time 1.;11;-151,05;-121,58;-41,68;-2,18;-3,62;2,33;20,09;54,61;55,65;30,70;1,97;1,70;151,26;147,37;-151,05;-121,58;-41,68;-2,18;-3,62;151,26;147,37;-23,26;-17,18;-1,22;49,12;651265
IF_LD_R4_8502001_DIS3_82, SUBCASE 1, Case 1 Time 1.;72;-150,57;-121,05;-41,54;-2,72;-4,42;1,64;19,57;53,61;54,87;30,49;2,02;1,72;150,77;146,93;-150,57;-121,05;-41,54;-2,72;-4,42;150,77;146,93;-23,84;-17,34;-1,08;48,98;651265
IF_LD_R4_8502001_DIS3_23, SUBCASE 1, Case 1 Time 1.;70;-150,27;-120,76;-41,28;-2,44;-4,04;1,84;19,70;53,87;54,81;30,41;2,03;1,73;150,48;146,65;-150,27;-120,76;-41,28;-2,44;-4,04;150,48;146,65;-23,39;-17,13;-1,08;48,88;651265
IF_TO_R4_8502005_JAM2M_OUT_82, SUBCASE 1, Case 1 Time 1.;123;-150,32;-121,87;-43,43;-2,86;-4,57;2,17;19,55;52,85;56,50;31,46;1,53;1,37;150,54;146,50;-150,32;-121,87;-43,43;-2,86;-4,57;150,54;146,50;-23,77;-17,27;-1,53;48,83;651265
IF_LD_R4_8502001_DIS3_-55, SUBCASE 1, Case 1 Time 1.;71;-149,88;-120,37;-40,93;-2,17;-3,53;2,12;19,88;54,20;54,72;30,30;2,04;1,75;150,08;146,28;-149,88;-120,37;-40,93;-2,17;-3,53;150,08;146,28;-23,08;-17,07;-1,10;48,76;651265
IF_TO_R4_8502005_JAM2M_OUT_23, SUBCASE 1, Case 1 Time 1.;121;-149,86;-121,43;-43,08;-2,58;-4,18;2,37;19,66;53,06;56,34;31,32;1,54;1,38;150,07;146,06;-149,86;-121,43;-43,08;-2,58;-4,18;150,07;146,06;-23,45;-17,16;-1,51;48,69;651265
IF_TO_R4_8502005_JAM2M_OUT_-55, SUBCASE 1, Case 1 Time 1.;122;-149,23;-120,81;-42,61;-2,21;-3,67;2,64;19,80;53,33;56,11;31,13;1,57;1,40;149,45;145,47;-149,23;-120,81;-42,61;-2,21;-3,67;149,45;145,47;-22,96;-16,96;-1,53;48,49;651265
IF_LD_R4_8502001_82, SUBCASE 1, Case 1 Time 1.;18;-148,78;-119,44;-40,62;-2,71;-4,41;1,83;19,53;53,63;54,05;29,81;2,10;1,79;148,98;145,24;-148,78;-119,44;-40,62;-2,71;-4,41;148,98;145,24;-23,46;-17,07;-1,01;48,41;651265
IF_LD_R4_8502001_23, SUBCASE 1, Case 1 Time 1.;16;-147,99;-118,74;-40,22;-2,42;-4,01;2,02;19,60;53,71;53,81;29,62;2,10;1,79;148,19;144,47;-147,99;-118,74;-40,22;-2,42;-4,01;148,19;144,47;-23,04;-16,88;-1,01;48,16;651265
IF_LD_R4_8502001_-55, SUBCASE 1, Case 1 Time 1.;17;-146,93;-117,80;-39,68;-2,16;-3,49;2,27;19,69;53,79;53,47;29,38;2,11;1,80;147,12;143,45;-146,93;-117,80;-39,68;-2,16;-3,49;147,12;143,45;-22,52;-16,67;-1,02;47,82;651265
IF_LD_R4_8502001_JAM2_82, SUBCASE 1, Case 1 Time 1.;90;-145,51;-117,11;-40,27;-2,68;-4,34;1,87;19,10;52,18;53,34;29,48;1,93;1,66;145,71;141,97;-145,51;-117,11;-40,27;-2,68;-4,34;145,71;141,97;-22,93;-16,69;-1,09;47,32;651265
IF_LD_R4_8502001_JAM2_23, SUBCASE 1, Case 1 Time 1.;88;-144,62;-116,31;-39,81;-2,39;-3,94;2,06;19,16;52,24;53,03;29,26;1,94;1,67;144,81;141,11;-144,62;-116,31;-39,81;-2,39;-3,94;144,81;141,11;-22,48;-16,48;-1,09;47,04;651265
IF_LD_R4_8502001_JAM2_-55, SUBCASE 1, Case 1 Time 1.;89;-143,44;-115,24;-39,19;-2,10;-3,42;2,31;19,23;52,30;52,61;28,96;1,95;1,68;143,63;139,98;-143,44;-115,24;-39,19;-2,10;-3,42;143,63;139,98;-21,96;-16,26;-1,09;46,66;651265
IF_LD_R2_8502001_82, SUBCASE 1, Case 1 Time 1.;15;-138,76;-110,44;-36,66;-2,45;-4,02;1,62;18,17;50,38;49,46;27,04;2,24;1,86;138,94;135,68;-138,76;-110,44;-36,66;-2,45;-4,02;138,94;135,68;-21,92;-15,86;-0,71;45,23;651265
IF_LD_R2_8502001_23, SUBCASE 1, Case 1 Time 1.;13;-137,91;-109,69;-36,24;-2,17;-3,62;1,79;18,24;50,44;49,20;26,85;2,24;1,86;138,08;134,86;-137,91;-109,69;-36,24;2,24;-3,62;138,08;134,86;-21,56;-15,72;-0,73;44,95;651265
IF_LD_R2_8502001_-55, SUBCASE 1, Case 1 Time 1.;14;-136,77;-108,69;-35,68;-2,04;-3,10;2,02;18,33;50,50;48,84;26,59;2,25;1,87;136,95;133,77;-136,77;-108,69;-35,68;2,25;-3,10;136,95;133,77;-20,96;-15,44;-0,73;44,59;651265
IF_LD_R4_8502001_JAM2M_INSF_82, SUBCASE 1, Case 1 Time 1.;129;-130,46;-101,28;-30,38;-2,02;-3,44;1,88;16,22;48,80;43,41;25,99;3,18;2,53;130,61;128,42;-130,46;-101,28;-30,38;3,18;-3,44;130,61;128,42;-20,63;-14,88;0,24;42,81;651265
IF_LD_R4_8502001_JAM2M_INSF_23, SUBCASE 1, Case 1 Time 1.;127;-129,98;-100,84;-30,08;-2,04;-3,06;1,89;16,60;49,00;43,30;25,89;3,19;2,53;130,13;127,96;-129,98;-100,84;-30,08;3,19;-3,06;130,13;127,96;-20,26;-14,72;0,23;42,65;651265
IF_LD_R4_8502001_JAM2M_INSF_-55, SUBCASE 1, Case 1 Time 1.;128;-128,90;-100,07;-29,73;-2,04;-2,54;1,95;17,13;49,09;43,18;25,54;3,14;2,51;129,04;126,84;-128,90;-100,07;-29,73;3,14;-2,54;129,04;126,84;-19,70;-14,50;0,18;42,28;651265
IF_LD_R2_8502001_JAM2_82, SUBCASE 1, Case 1 Time 1.;87;-127,82;-102,46;-35,05;-2,34;-3,80;1,72;16,79;45,91;46,74;25,67;1,77;1,51;127,99;124,77;-127,82;-102,46;-35,05;-2,34;-3,80;127,99;124,77;-20,15;-14,59;-0,92;41,59;651265
IF_LD_R2_8502001_JAM2_23, SUBCASE 1, Case 1 Time 1.;85;-127,03;-101,74;-34,62;-2,06;-3,40;1,90;16,86;46,00;46,47;25,47;1,78;1,52;127,20;124,02;-127,03;-101,74;-34,62;-2,06;-3,40;127,20;124,02;-19,84;-14,48;-0,92;41,34;651265
IF_LD_R2_8502001_JAM2_-55, SUBCASE 1, Case 1 Time 1.;86;-125,98;-100,79;-34,04;-1,85;-2,88;2,16;16,96;46,10;46,10;25,20;1,79;1,53;126,15;123,02;-125,98;-100,79;-34,04;-1,85;-2,88;126,15;123,02;-19,21;-14,19;-0,92;41,01;651265
IF_LD_R2_8502001_JAM2M_INSF_82, SUBCASE 1, Case 1 Time 1.;126;-120,06;-92,64;-27,48;-1,86;-3,07;1,74;14,83;44,93;39,77;24,26;3,02;2,38;120,19;118,38;-120,06;-92,64;-27,48;3,02;-3,07;120,19;118,38;-18,96;-13,60;0,26;39,46;651265
IF_LD_R2_8502001_JAM2M_INSF_23, SUBCASE 1, Case 1 Time 1.;124;-119,47;-92,09;-27,12;-1,87;-2,68;1,77;15,17;45,09;39,59;24,15;3,03;2,39;119,59;117,81;-119,47;-92,09;-27,12;3,03;-2,68;119,59;117,81;-18,68;-13,51;0,23;39,27;651265
IF_LD_R2_8502001_JAM2M_INSF_-55, SUBCASE 1, Case 1 Time 1.;125;-118,57;-91,31;-26,65;-1,88;-2,17;1,83;15,65;45,23;39,36;23,97;3,03;2,39;118,69;116,94;-118,57;-91,31;-26,65;3,03;2,39;118,69;116,94;-18,07;-13,23;0,24;38,98;651265
IF_IP1_R1_8502005_JAM2_-55, SUBCASE 1, Case 1 Time 1.;77;-118,15;-94,78;-33,06;-1,65;-2,60;1,88;15,46;41,84;43,73;24,30;1,38;1,18;118,31;115,29;-118,15;-94,78;-33,06;-1,65;-2,60;118,31;115,29;-18,28;-13,41;-1,09;38,43;651265
IF_IP1_R1_8502005_JAM2_23, SUBCASE 1, Case 1 Time 1.;76;-117,90;-94,68;-33,28;-1,89;-3,09;1,59;15,21;41,28;43,63;24,30;1,35;1,15;118,06;115,03;-117,90;-94,68;-33,28;-1,89;-3,09;118,06;115,03;-18,96;-13,75;-1,11;38,34;651265
IF_IP1_R1_8502005_JAM2_82, SUBCASE 1, Case 1 Time 1.;78;-117,70;-94,59;-33,43;-2,16;-3,46;1,37;15,01;40,84;43,55;24,30;1,33;1,13;117,86;114,83;-117,70;-94,59;-33,43;-2,16;-3,46;117,86;114,83;-18,85;-13,54;-1,07;38,28;651265
IF_IP1_R1_8502005_82, SUBCASE 1, Case 1 Time 1.;6;-114,75;-92,47;-33,06;-2,16;-3,43;1,44;14,64;39,64;42,80;23,95;1,19;1,02;114,91;111,90;-114,75;-92,47;-33,06;-2,16;-3,43;114,91;111,90;-18,38;-13,21;-1,14;37,30;651265
IF_IP1_R1_8502005_23, SUBCASE 1, Case 1 Time 1.;4;-114,65;-92,35;-32,86;-1,89;-3,06;1,66;14,80;39,96;42,81;23,92;1,19;1,03;114,81;111,81;-114,65;-92,35;-32,86;-1,89;-3,06;114,81;111,81;-18,45;-13,38;-1,18;37,27;651265
IF_IP1_R1_8502005_-55, SUBCASE 1, Case 1 Time 1.;5;-114,50;-92,17;-32,60;-1,58;-2,57;1,96;15,00;40,36;42,81;23,88;1,20;1,04;114,66;111,67;-114,50;-92,17;-32,60;-1,58;-2,57;114,66;111,67;-17,70;-13,00;-1,17;37,22;651265
IF_LD_R2_8502001_DIS3_82, SUBCASE 1, Case 1 Time 1.;69;-99,65;-79,01;-26,54;-1,78;-2,89;1,21;12,97;35,66;35,84;19,54;1,56;1,29;99,77;97,44;-99,65;-79,01;-26,54;-1,78;-2,89;99,77;97,44;-15,79;-11,32;-0,58;32,48;651265
IF_LD_R2_8502001_DIS3_23, SUBCASE 1, Case 1 Time 1.;67;-99,37;-78,75;-26,28;-1,51;-2,51;1,41;13,11;35,92;35,79;19,47;1,56;1,30;99,50;97,18;-99,37;-78,75;-26,28;1,56;-2,51;99,50;97,18;-15,65;-11,33;-0,60;32,39;651265
IF_LD_R2_8502001_DIS3_-55, SUBCASE 1, Case 1 Time 1.;68;-98,99;-78,37;-25,93;-1,45;-2,02;1,67;13,29;36,25;35,71;19,37;1,57;1,31;99,11;96,82;-98,99;-78,37;-25,93;1,57;-2,02;99,11;96,82;-15,03;-11,05;-0,60;32,27;651265
IF_IP1_R1_8502005_JAM2M_OUT_82, SUBCASE 1, Case 1 Time 1.;111;-96,46;-79,76;-31,73;-2,20;-3,36;1,88;12,22;31,52;38,44;22,42;0,71;0,67;96,62;93,95;-96,46;-79,76;-31,73;-2,20;-3,36;96,62;93,95;-15,70;-11,31;-1,70;31,32;651265
IF_IP1_R1_8502005_JAM2M_OUT_23, SUBCASE 1, Case 1 Time 1.;109;-96,45;-79,69;-31,52;-1,93;-2,99;2,09;12,37;31,88;38,45;22,38;0,69;0,69;96,61;93,94;-96,45;-79,69;-31,52;-1,93;-2,99;96,61;93,94;-15,16;-11,03;-1,68;31,31;651265
IF_IP1_R1_8502005_JAM2M_OUT_-55, SUBCASE 1, Case 1 Time 1.;110;-96,42;-79,56;-31,21;-1,57;-2,50;2,36;12,58;32,35;38,45;22,31;0,67;0,72;96,58;93,92;-96,42;-79,56;-31,21;-1,57;-2,50;96,58;93,92;-15,03;-11,10;-1,71;31,31;651265
IF_LD_R2_8502001_DIS1_INSF_-55, SUBCASE 1, Case 1 Time 1.;50;-84,36;-66,59;-21,92;-1,24;-1,60;1,53;11,39;30,99;30,40;16,42;1,38;1,15;84,46;82,54;-84,36;-66,59;-21,92;1,38;-1,60;84,46;82,54;-12,72;-9,36;-0,49;27,51;651265
IF_LD_R2_8502001_DIS1_INSF_23, SUBCASE 1, Case 1 Time 1.;49;-83,57;-66,03;-21,95;-1,23;-2,06;1,25;11,06;30,25;30,06;16,29;1,36;1,13;83,67;81,76;-83,57;-66,03;-21,95;1,36;-2,06;83,67;81,76;-12,87;-9,30;-0,47;27,25;651265
IF_LD_R2_8502001_DIS1_INSF_82, SUBCASE 1, Case 1 Time 1.;51;-83,34;-65,90;-22,07;-1,49;-2,42;1,06;10,86;29,81;29,93;16,26;1,35;1,12;83,45;81,53;-83,34;-65,90;-22,07;-1,49;-2,42;83,45;81,53;-13,22;-9,44;-0,46;27,18;651265
IF_IP1_R1_8502005_DIS3_82, SUBCASE 1, Case 1 Time 1.;60;-76,61;-61,36;-21,89;-1,51;-2,38;0,90;9,71;26,28;28,41;15,86;0,84;0,71;76,71;74,75;-76,61;-61,36;-21,89;-1,51;-2,38;76,71;74,75;-12,38;-8,80;-0,72;24,92;651265
IF_IP1_R1_8502005_DIS3_23, SUBCASE 1, Case 1 Time 1.;58;-76,48;-61,21;-21,68;-1,24;-2,01;1,12;9,86;26,58;28,42;15,82;0,85;0,72;76,58;74,63;-76,48;-61,21;-21,68;-1,24;-2,01;76,58;74,63;-12,33;-8,88;-0,75;24,88;651265
IF_IP1_R1_8502005_DIS3_-55, SUBCASE 1, Case 1 Time 1.;59;-76,28;-61,00;-21,40;-1,05;-1,52;1,42;10,05;26,96;28,40;15,77;0,85;0,73;76,38;74,45;-76,28;-61,00;-21,40;-1,05;-1,52;76,38;74,45;-11,68;-8,57;-0,75;24,82;651265
IF_IP1_R1_8502005_DIS1_82, SUBCASE 1, Case 1 Time 1.;42;-74,88;-59,93;-21,39;-1,42;-2,24;0,87;9,48;25,60;27,79;15,51;0,84;0,70;74,98;73,08;-74,88;-59,93;-21,39;-1,42;-2,24;74,98;73,08;-12,13;-8,61;-0,70;24,36;651265
IF_IP1_R1_8502005_DIS1_23, SUBCASE 1, Case 1 Time 1.;40;-74,81;-59,84;-21,20;-1,15;-1,88;1,10;9,64;25,92;27,82;15,49;0,84;0,71;74,91;73,02;-74,81;-59,84;-21,20;-1,15;-1,88;74,91;73,02;-12,09;-8,69;-0,73;24,34;651265
IF_IP1_R1_8502005_DIS1_-55, SUBCASE 1, Case 1 Time 1.;41;-74,71;-59,70;-20,95;-1,03;-1,40;1,40;9,84;26,34;27,83;15,45;0,85;0,72;74,80;72,92;-74,71;-59,70;-20,95;-1,03;-1,40;74,80;72,92;-11,45;-8,40;-0,73;24,31;651265
IF_LD_R2_8502001_FS11_82, SUBCASE 1, Case 1 Time 1.;33;-55,87;-38,77;-9,82;-1,52;-1,63;1,62;5,55;19,90;15,41;13,99;2,62;1,94;55,90;57,52;-55,87;-38,77;13,99;2,62;1,94;55,90;57,52;-9,40;-6,02;1,08;19,17;651265
IF_LD_R2_8502001_FS11_23, SUBCASE 1, Case 1 Time 1.;31;-55,34;-38,26;-9,88;-1,53;-1,25;1,46;5,65;20,08;15,26;13,90;2,64;1,95;55,37;57,06;-55,34;-38,26;13,90;2,64;1,95;55,37;57,06;-9,00;-5,85;1,06;19,02;651265
IF_LD_R2_8502001_FS11_-55, SUBCASE 1, Case 1 Time 1.;32;-54,65;-37,59;-9,95;-1,55;-0,86;1,27;5,78;20,30;15,06;13,79;2,65;1,96;54,68;56,46;-54,65;-37,59;13,79;2,65;1,96;54,68;56,46;-8,54;-5,67;1,08;18,82;651265
IF_LD_R4_8502001_DIS1_INSF_82, SUBCASE 1, Case 1 Time 1.;54;-57,01;-45,23;-15,41;-1,13;-1,81;0,81;7,46;20,26;20,72;11,28;0,88;0,75;57,08;55,70;-57,01;-45,23;-15,41;-1,13;-1,81;57,08;55,70;-9,09;-6,46;-0,34;18,57;651265
IF_LD_R4_8502001_DIS1_INSF_23, SUBCASE 1, Case 1 Time 1.;52;-56,81;-45,02;-15,18;-0,86;-1,43;0,99;7,60;20,54;20,70;11,23;0,89;0,76;56,88;55,51;-56,81;-45,02;-15,18;0,89;-1,43;56,88;55,51;-8,85;-6,41;-0,36;18,50;651265
IF_LD_R4_8502001_DIS1_INSF_-55, SUBCASE 1, Case 1 Time 1.;53;-56,55;-44,75;-14,86;-0,84;-0,95;1,26;7,80;20,91;20,67;11,16;0,90;0,77;56,62;55,27;-56,55;-44,75;-14,86;0,90;-0,95;56,62;55,27;-8,35;-6,22;-0,37;18,42;651265
IF_LD_R4_8502001_FS11_82, SUBCASE 1, Case 1 Time 1.;36;-46,18;-34,43;-9,63;-0,92;-1,50;0,76;4,97;16,15;14,68;10,01;1,44;1,11;46,22;45,93;-46,18;-34,43;10,01;1,44;-1,50;46,22;45,93;-7,66;-5,14;0,32;15,31;651265
IF_LD_R4_8502001_FS11_23, SUBCASE 1, Case 1 Time 1.;34;-45,65;-33,92;-9,25;-0,80;-1,12;0,67;5,27;16,32;14,53;9,92;1,46;1,12;45,69;45,44;-45,65;-33,92;9,92;1,46;1,12;45,69;45,44;-7,33;-5,01;0,33;15,15;651265
IF_LD_R4_8502001_FS11_-55, SUBCASE 1, Case 1 Time 1.;35;-44,96;-33,26;-8,76;-0,82;-0,63;0,66;5,71;16,53;14,31;9,81;1,47;1,14;44,99;44,80;-44,96;-33,26;9,81;1,47;1,14;44,99;44,80;-6,80;-4,80;0,32;14,93;651265
IF_TO_R4_8502005_FS11_82, SUBCASE 1, Case 1 Time 1.;30;-38,75;-30,10;-9,78;-0,87;-1,38;0,43;4,57;13,32;13,43;7,60;0,82;0,66;38,79;38,02;-38,75;-30,10;-9,78;-0,87;-1,38;38,79;38,02;-6,42;-4,41;-0,05;12,67;651265
IF_TO_R4_8502005_FS11_23, SUBCASE 1, Case 1 Time 1.;28;-38,14;-29,57;-9,43;-0,59;-1,00;0,48;4,90;13,46;13,26;7,48;0,82;0,66;38,19;37,44;-38,14;-29,57;-9,43;0,82;-1,00;38,19;37,44;-6,06;-4,26;-0,06;12,48;651265
IF_IP2_R4_8502005_FS11_82, SUBCASE 1, Case 1 Time 1.;27;-37,78;-29,63;-10,00;-0,86;-1,36;0,37;4,54;12,84;13,35;7,25;0,69;0,60;37,82;36,98;-37,78;-29,63;-10,00;-0,86;-1,36;37,82;36,98;-6,31;-4,34;-0,14;12,33;651265
IF_TO_R4_8502005_DIS1_82, SUBCASE 1, Case 1 Time 1.;48;-37,75;-30,01;-10,44;-0,85;-1,34;0,46;4,82;13,07;13,80;7,56;0,57;0,52;37,79;36,86;-37,75;-30,01;-10,44;-0,85;-1,34;37,79;36,86;-6,17;-4,32;-0,24;12,29;651265
IF_TO_R4_8502005_DIS1_23, SUBCASE 1, Case 1 Time 1.;46;-37,56;-29,82;-10,22;-0,58;-0,97;0,63;4,97;13,35;13,79;7,51;0,57;0,49;37,60;36,68;-37,56;-29,82;-10,22;-0,58;-0,97;37,60;36,68;-5,86;-4,22;-0,25;12,23;651265
IF_TO_R4_8502005_FS11_-55, SUBCASE 1, Case 1 Time 1.;29;-37,36;-28,87;-8,95;-0,55;-0,51;0,67;5,03;13,65;13,04;7,32;0,82;0,67;37,40;36,68;-37,36;-28,87;-8,95;0,82;0,67;37,40;36,68;-5,54;-4,06;-0,07;12,23;651265
IF_TO_R4_8502005_DIS1_-55, SUBCASE 1, Case 1 Time 1.;47;-37,32;-29,57;-9,92;-0,55;-0,50;0,89;5,16;13,72;13,77;7,45;0,57;0,49;37,36;36,45;-37,32;-29,57;-9,92;0,57;-0,50;37,36;36,45;-5,44;-4,08;-0,27;12,15;651265
IF_IP2_R4_8502005_FS11_23, SUBCASE 1, Case 1 Time 1.;25;-37,15;-29,10;-9,66;-0,59;-0,98;0,45;4,74;12,98;13,19;7,12;0,69;0,56;37,20;36,38;-37,15;-29,10;-9,66;0,69;-0,98;37,20;36,38;-5,87;-4,15;-0,16;12,13;651265
IF_IP2_R4_8502005_FS11_-55, SUBCASE 1, Case 1 Time 1.;26;-36,34;-28,39;-9,21;-0,53;-0,49;0,67;4,87;13,16;12,97;6,94;0,69;0,56;36,38;35,59;-36,34;-28,39;-9,21;0,69;0,56;36,38;35,59;-5,42;-3,98;-0,16;11,86;651265
IF_IP2_R4_8502005_DIS1_-55, SUBCASE 1, Case 1 Time 1.;44;-34,56;-27,38;-9,28;-0,50;-0,43;0,74;4,69;12,51;12,71;6,94;0,52;0,44;34,60;33,76;-34,56;-27,38;-9,28;0,52;0,44;34,60;33,76;-5,10;-3,81;-0,26;11,25;651265
IF_IP2_R4_8502005_DIS1_23, SUBCASE 1, Case 1 Time 1.;43;-34,54;-27,42;-9,50;-0,53;-0,89;0,47;4,47;12,05;12,64;6,94;0,52;0,43;34,59;33,74;-34,54;-27,42;-9,50;-0,53;-0,89;34,59;33,74;-5,60;-4,00;-0,25;11,25;651265
IF_IP2_R4_8502005_DIS1_82, SUBCASE 1, Case 1 Time 1.;45;-34,54;-27,45;-9,67;-0,80;-1,25;0,32;4,29;11,70;12,58;6,95;0,51;0,49;34,58;33,73;-34,54;-27,45;-9,67;-0,80;-1,25;34,58;33,73;-5,76;-4,00;-0,23;11,24;651265
IF_CR_R1_8501009_FS11_82, SUBCASE 1, Case 1 Time 1.;21;-33,34;-29,27;-13,59;-1,08;-1,63;0,42;4,08;10,22;14,02;9,26;0,43;0,36;33,42;32,84;-33,34;-29,27;-13,59;-1,08;-1,63;33,42;32,84;-5,73;-4,27;-0,95;10,95;651265
IF_CR_R1_8501009_FS11_23, SUBCASE 1, Case 1 Time 1.;19;-32,83;-28,84;-13,31;-0,81;-1,26;0,65;4,18;10,41;13,92;9,17;0,42;0,21;32,90;32,36;-32,83;-28,84;-13,31;-0,81;-1,26;32,90;32,36;-5,67;-4,35;-0,97;10,79;651265
IF_CR_R1_8501009_FS11_-55, SUBCASE 1, Case 1 Time 1.;20;-32,15;-28,28;-12,93;-0,55;-1,14;0,96;4,32;10,65;13,77;9,04;0,40;0,23;32,23;31,74;-32,15;-28,28;-12,93;-0,55;-1,14;32,23;31,74;-4,88;-3,95;-1,00;10,58;651265
IF_IP1_R1_8502005_FS11_82, SUBCASE 1, Case 1 Time 1.;24;-12,49;-11,71;-6,21;-0,64;-0,94;0,16;1,49;3,80;5,71;4,03;0,29;0,33;12,52;12,83;-12,49;-11,71;-6,21;-0,64;-0,94;12,52;12,83;-2,30;-1,73;-0,55;4,28;651265
IF_IP1_R1_8502005_FS11_23, SUBCASE 1, Case 1 Time 1.;22;-11,95;-11,26;-5,90;-0,46;-0,63;0,39;1,59;3,97;5,58;3,93;0,23;0,17;11,98;12,38;-11,95;-11,26;-5,90;-0,46;-0,63;11,98;12,38;-2,00;-1,63;-0,57;4,13;651265
IF_IP1_R1_8502005_FS11_-55, SUBCASE 1, Case 1 Time 1.;23;-11,28;-10,67;-5,51;-0,47;-0,62;0,70;1,73;4,19;5,40;3,79;0,23;0,18;11,28;11,80;-11,28;-10,67;-5,51;-0,47;-0,62;11,28;11,80;-1,44;-1,40;-0,58;3,93;651265
IF_IP2_JAM2M_IN_82, SUBCASE 1, Case 1 Time 1.;96;-4,93;-3,65;-1,02;-0,08;-0,07;0,11;0,58;1,84;1,77;1,08;0,16;0,13;4,93;4,90;-4,93;-3,65;1,08;0,16;0,13;4,93;4,90;-0,80;-0,53;0,02;1,63;651265
IF_LD_JAM2M_IN_-55, SUBCASE 1, Case 1 Time 1.;107;-0,51;-1,47;-1,05;-0,19;-0,75;0,22;0,30;4,88;3,81;1,64;0,75;1,06;4,89;4,78;4,88;3,81;1,64;0,75;1,06;4,89;4,78;1,51;0,73;-0,04;1,59;651265
IF_IP2_JAM2M_IN_23, SUBCASE 1, Case 1 Time 1.;94;-4,47;-3,26;-0,84;-0,10;-0,24;0,33;0,56;2,03;1,66;1,01;0,23;0,31;4,47;4,46;-4,47;-3,26;1,01;0,23;0,31;4,47;4,46;-0,45;-0,40;0,00;1,49;651265
IF_LD_JAM2M_IN_23, SUBCASE 1, Case 1 Time 1.;106;-0,70;-1,27;-0,87;-0,09;-0,33;0,12;0,30;4,10;3,17;1,21;0,40;0,57;4,11;4,02;4,10;3,17;1,21;0,40;0,57;4,11;4,02;0,98;0,53;-0,02;1,34;651265
IF_IP2_JAM2M_IN_-55, SUBCASE 1, Case 1 Time 1.;95;-3,86;-2,74;-1,03;-0,21;-0,65;0,14;0,92;2,28;1,51;1,00;0,58;0,80;3,86;3,87;-3,86;-2,74;-1,03;0,58;0,80;3,86;3,87;0,03;-0,23;-0,02;1,29;651265
IF_LD_JAM2M_IN_82, SUBCASE 1, Case 1 Time 1.;108;-0,85;-1,12;-0,73;-0,05;-0,03;0,19;0,34;3,51;2,69;0,91;0,13;0,19;3,51;3,44;3,51;2,69;0,91;0,13;0,19;3,51;3,44;0,63;0,40;0,00;1,15;651265
IF_TO_JAM2M_OUT_-55, SUBCASE 1, Case 1 Time 1.;104;-1,28;-1,39;-0,73;-0,06;-0,13;0,11;0,33;3,45;2,74;1,00;0,10;0,14;3,45;3,38;3,45;2,74;1,00;0,10;0,14;3,45;3,38;0,65;0,42;0,03;1,13;651265
IF_IP1_JAM2M_OUT_82, SUBCASE 1, Case 1 Time 1.;93;-1,66;-1,22;-0,88;-0,64;-0,89;0,13;0,63;1,83;1,35;1,25;0,20;0,71;1,95;2,70;1,83;1,35;1,25;-0,64;-0,89;1,95;2,70;-0,37;0,01;0,06;0,90;651458
IF_TO_JAM2M_IN_82, SUBCASE 1, Case 1 Time 1.;102;-2,69;-1,96;-0,54;-0,06;-0,03;0,10;0,27;1,07;0,99;0,63;0,11;0,10;2,69;2,69;-2,69;-1,96;0,63;0,11;0,10;2,69;2,69;-0,45;-0,29;0,02;0,90;651265
IF_IP1_JAM2M_OUT_-55, SUBCASE 1, Case 1 Time 1.;92;-1,13;-1,16;-0,61;-0,06;-0,09;0,16;0,40;2,63;2,07;0,70;0,05;0,02;2,63;2,58;2,63;2,07;0,70;-0,06;-0,09;2,63;2,58;0,43;0,30;0,03;0,86;651265
IF_TO_JAM2M_OUT_23, SUBCASE 1, Case 1 Time 1.;103;-1,44;-1,15;-0,70;-0,26;-0,36;0,15;0,50;2,59;2,01;0,70;0,08;0,28;2,60;2,55;2,59;2,01;-0,70;-0,26;-0,36;2,60;2,55;0,11;0,20;0,05;0,85;651265
IF_TO_JAM2M_IN_-55, SUBCASE 1, Case 1 Time 1.;101;-1,56;-1,00;-0,92;-0,20;-0,66;0,07;0,53;1,60;1,22;0,69;0,61;0,84;1,65;2,32;1,60;1,22;-0,92;0,61;0,84;1,65;2,32;0,40;0,02;-0,02;0,77;651458
IF_TO_JAM2M_OUT_82, SUBCASE 1, Case 1 Time 1.;105;-1,57;-1,01;-0,81;-0,53;-0,74;0,11;0,59;1,95;1,46;1,05;0,16;0,59;1,95;2,29;1,95;1,46;1,05;-0,53;-0,74;1,95;2,29;-0,26;0,05;0,06;0,76;651458
IF_TO_JAM2M_IN_23, SUBCASE 1, Case 1 Time 1.;100;-2,20;-1,55;-0,53;-0,09;-0,25;0,12;0,38;1,26;0,88;0,55;0,25;0,35;2,20;2,22;-2,20;-1,55;0,55;0,25;0,35;2,20;2,22;-0,10;-0,16;0,00;0,74;651265
IF_IP2_JAM2M_OUT_82, SUBCASE 1, Case 1 Time 1.;99;-1,72;-1,46;-0,76;-0,55;-0,77;0,41;0,35;0,30;0,45;0,71;0,17;0,58;1,75;2,19;-1,72;-1,46;-0,76;-0,55;-0,77;1,75;2,19;-0,65;-0,25;0,01;0,73;651468
IF_IP1_JAM2M_OUT_23, SUBCASE 1, Case 1 Time 1.;91;-1,42;-1,08;-0,72;-0,37;-0,52;0,17;0,59;2,17;1,65;0,85;0,12;0,39;2,17;2,14;2,17;1,65;0,85;-0,37;-0,52;2,17;2,14;-0,41;-0,14;0,03;0,71;651265
IF_IP2_JAM2M_OUT_-55, SUBCASE 1, Case 1 Time 1.;98;-0,33;-0,40;-0,25;-0,05;-0,15;0,05;0,06;1,03;0,68;0,31;0,08;0,11;1,03;1,02;1,03;0,68;0,31;0,08;-0,15;1,03;1,02;0,28;0,14;-0,01;0,34;651459
IF_IP2_JAM2M_OUT_23, SUBCASE 1, Case 1 Time 1.;97;-0,71;-0,61;-0,31;-0,28;-0,39;0,06;0,14;0,22;0,29;0,34;0,09;0,26;0,74;0,98;-0,71;-0,61;0,34;-0,28;-0,39;0,74;0,98;-0,27;-0,09;0,00;0,33;651458
Ref CID;Coord Material;;;;;;;;;;;;;;;;;;;;;;;;;;
