LC_Name;LC_ID;qxMin;qyMin;qxyMin;qxzMin;qyzMin;qshearMin;qvonmisesMin;qxMax;qyMax;qxyMax;qxzMax;qyzMax;qshearMax;qvonmisesMax;qxAbsMax;qyAbsMax;qxyAbsMax;qxzAbsMax;qyzAbsMax;qshearAbsMax;qvonmisesAbsMax;qxAverage;qyAverage;qxyAverage;sigmaVonMisesMax;CriticalElemID
IF_CR_R1_8501009_JAM2_-55, SUBCASE 1, Case 1 Time 1.;74;-2,78;-2,46;-8,02;-2,34;-1,29;0,05;0,63;23,89;82,15;15,46;4,35;4,45;82,29;81,82;23,89;82,15;15,46;4,35;4,45;82,29;81,82;4,66;26,78;5,02;32,73;650333
IF_CR_R1_8501009_-55, SUBCASE 1, Case 1 Time 1.;2;-2,65;-2,43;-7,90;-2,30;-1,23;0,06;0,60;23,58;79,64;14,75;4,21;4,31;79,78;79,27;23,58;79,64;14,75;4,21;4,31;79,78;79,27;4,61;26,25;4,83;31,71;650333
IF_CR_R1_8501009_JAM2_23, SUBCASE 1, Case 1 Time 1.;73;-2,65;-1,87;-6,55;-2,14;-1,20;0,15;0,47;19,67;74,40;15,00;4,12;4,21;74,53;74,31;19,67;74,40;15,00;4,12;4,21;74,53;74,31;3,86;23,79;4,78;29,72;650333
IF_IP2_R4_8502005_JAM2M_IN_-55, SUBCASE 1, Case 1 Time 1.;113;-2,86;-1,92;-6,17;-2,00;-1,27;0,68;1,11;17,87;73,46;15,81;3,96;3,94;73,58;73,58;17,87;73,46;15,81;3,96;3,94;73,58;73,58;3,47;21,43;4,58;29,43;650333
IF_CR_R1_8501009_23, SUBCASE 1, Case 1 Time 1.;1;-2,53;-1,85;-6,44;-2,10;-1,16;0,17;0,47;19,29;72,23;14,38;4,00;4,09;72,36;72,11;19,29;72,23;14,38;4,00;4,09;72,36;72,11;5,10;23,55;4,57;28,84;650333
IF_CR_R1_8501009_JAM2_82, SUBCASE 1, Case 1 Time 1.;75;-2,54;-1,44;-5,48;-1,98;-1,14;0,26;0,46;18,93;68,44;14,62;3,94;4,01;68,57;68,54;18,93;68,44;14,62;3,94;4,01;68,57;68,54;3,36;21,96;4,66;27,42;650333
IF_TO_R4_8502005_JAM2M_IN_INSF_-55, SUBCASE 1, Case 1 Time 1.;119;-2,58;-1,80;-5,54;-1,87;-1,17;0,63;0,85;16,19;66,86;14,39;3,64;3,66;66,97;66,96;16,19;66,86;14,39;3,64;3,66;66,97;66,96;3,10;19,41;4,07;26,79;650333
IF_CR_R1_8501009_82, SUBCASE 1, Case 1 Time 1.;3;-2,44;-1,41;-5,38;-1,95;-1,10;0,29;0,48;18,60;66,52;14,07;3,83;3,91;66,65;66,59;18,60;66,52;14,07;3,83;3,91;66,65;66,59;3,30;21,54;4,52;26,64;650333
IF_IP2_R4_8502005_JAM2M_IN_23, SUBCASE 1, Case 1 Time 1.;112;-2,74;-1,35;-4,70;-1,84;-1,19;0,53;0,75;15,65;65,90;15,40;3,73;3,69;66,01;66,29;15,65;65,90;15,40;3,73;3,69;66,01;66,29;2,70;18,47;4,33;26,51;650333
IF_IP2_R4_8502005_DIS3_-55, SUBCASE 1, Case 1 Time 1.;62;-2,25;-1,97;-6,26;-1,81;-1,03;0,23;0,71;18,58;64,97;12,46;3,42;3,45;65,08;64,74;18,58;64,97;12,46;3,42;3,45;65,08;64,74;3,58;20,68;3,91;25,90;650333
IF_IP2_R4_8502005_JAM2_-55, SUBCASE 1, Case 1 Time 1.;80;-2,24;-1,86;-5,85;-1,75;-1,04;0,39;0,90;17,28;62,98;12,44;3,36;3,39;63,09;62,85;17,28;62,98;12,44;3,36;3,39;63,09;62,85;3,32;19,58;3,79;25,14;650333
IF_IP2_R4_8502005_JAM2M_IN_82, SUBCASE 1, Case 1 Time 1.;114;-2,65;-0,91;-3,78;-1,71;-1,13;0,41;0,50;14,94;60,10;15,05;3,55;3,49;60,21;60,71;14,94;60,10;15,05;3,55;3,49;60,21;60,71;2,19;16,70;4,25;24,28;650333
IF_LD_R4_8502001_JAM2M_INSF_-55, SUBCASE 1, Case 1 Time 1.;128;-2,33;-1,64;-4,64;-1,76;-1,07;0,87;1,19;13,66;59,74;13,14;3,33;3,31;59,84;59,88;13,66;59,74;13,14;3,33;3,31;59,84;59,88;2,54;16,98;3,49;23,95;650333
IF_TO_R4_8502005_JAM2M_IN_INSF_23, SUBCASE 1, Case 1 Time 1.;118;-2,48;-1,23;-4,08;-1,71;-1,09;0,42;0,57;13,98;59,48;14,04;3,42;3,41;59,58;59,86;13,98;59,48;14,04;3,42;3,41;59,58;59,86;2,35;16,65;3,87;23,94;650333
IF_TO_R4_8502005_DIS3_-55, SUBCASE 1, Case 1 Time 1.;65;-2,04;-1,84;-5,71;-1,69;-0,95;0,27;0,74;17,06;59,30;11,33;3,13;3,20;59,40;59,08;17,06;59,30;11,33;3,13;3,20;59,40;59,08;3,26;18,82;3,50;23,63;650333
IF_TO_R4_8502005_JAM2_-55, SUBCASE 1, Case 1 Time 1.;83;-2,08;-1,79;-5,43;-1,70;-0,98;0,47;0,98;16,18;59,00;11,63;3,18;3,25;59,11;58,87;16,18;59,00;11,63;3,18;3,25;59,11;58,87;3,07;18,27;3,46;23,55;650333
IF_IP2_R4_8502005_-55, SUBCASE 1, Case 1 Time 1.;8;-2,02;-1,82;-5,70;-1,69;-0,95;0,30;0,77;16,94;58,98;11,22;3,14;3,18;59,08;58,76;16,94;58,98;11,22;3,14;3,18;59,08;58,76;3,24;18,78;3,49;23,51;650333
IF_IP2_R4_8502005_DIS3_23, SUBCASE 1, Case 1 Time 1.;61;-2,14;-1,39;-4,80;-1,61;-0,95;0,08;0,43;14,78;57,56;12,10;3,21;3,21;57,67;57,59;14,78;57,56;12,10;3,21;3,21;57,67;57,59;2,80;17,75;3,69;23,03;650333
IF_CR_R1_8501009_DIS3_-55, SUBCASE 1, Case 1 Time 1.;56;-1,87;-1,82;-5,83;-1,63;-0,89;0,04;0,48;17,43;56,81;10,31;2,96;3,08;56,90;56,50;17,43;56,81;10,31;2,96;3,08;56,90;56,50;3,35;18,64;3,37;22,60;650333
IF_LD_R2_8502001_JAM2M_INSF_-55, SUBCASE 1, Case 1 Time 1.;125;-2,21;-1,56;-4,38;-1,66;-1,02;0,78;1,21;12,87;56,34;12,42;3,14;3,12;56,44;56,48;12,87;56,34;12,42;3,14;3,12;56,44;56,48;2,39;15,93;3,28;22,59;650333
IF_LD_R4_8502001_-55, SUBCASE 1, Case 1 Time 1.;17;-1,94;-1,76;-5,14;-1,70;-0,94;0,54;0,98;15,49;56,01;10,91;3,05;3,15;56,10;55,84;15,49;56,01;10,91;3,05;3,15;56,10;55,84;2,91;17,43;3,19;22,34;650333
IF_LD_R4_8502001_DIS3_-55, SUBCASE 1, Case 1 Time 1.;71;-1,93;-1,75;-5,29;-1,62;-0,91;0,37;0,84;15,86;55,90;10,79;2,97;3,06;56,00;55,72;15,86;55,90;10,79;2,97;3,06;56,00;55,72;3,00;17,54;3,25;22,29;650333
IF_IP2_R4_8502005_JAM2_23, SUBCASE 1, Case 1 Time 1.;79;-2,12;-1,28;-4,39;-1,57;-0,95;0,24;0,59;14,04;55,47;12,04;3,14;3,14;55,57;55,59;14,04;55,47;12,04;3,14;3,14;55,57;55,59;2,56;16,73;3,58;22,23;650333
IF_TO_R4_8502005_-55, SUBCASE 1, Case 1 Time 1.;11;-1,88;-1,76;-5,31;-1,65;-0,91;0,38;0,85;15,93;55,56;10,56;2,98;3,07;55,65;55,35;15,93;55,56;10,56;2,98;3,07;55,65;55,35;3,01;17,60;3,21;22,14;650333
IF_CR_R1_8501009_DIS1_-55, SUBCASE 1, Case 1 Time 1.;38;-1,82;-1,81;-5,83;-1,56;-0,88;0,20;0,44;17,58;55,53;9,92;2,86;3,01;55,63;55,22;17,58;55,53;9,92;2,86;3,01;55,63;55,22;3,38;18,25;3,32;22,09;650333
IF_LD_R2_8502001_-55, SUBCASE 1, Case 1 Time 1.;14;-1,94;-1,69;-4,90;-1,64;-0,94;0,62;0,80;14,70;54,88;10,97;3,00;3,08;54,97;54,78;14,70;54,88;10,97;3,00;3,08;54,97;54,78;2,75;16,74;3,14;21,91;650333
IF_IP2_R4_8502005_JAM2M_OUT_-55, SUBCASE 1, Case 1 Time 1.;116;-1,79;-1,81;-5,60;-1,63;-0,86;0,15;0,57;16,81;54,98;9,91;2,91;2,97;55,08;54,67;16,81;54,98;9,91;2,91;2,97;55,08;54,67;3,20;18,06;3,19;21,87;650333
IF_TO_R4_8502005_JAM2M_IN_INSF_82, SUBCASE 1, Case 1 Time 1.;120;-2,39;-0,79;-3,13;-1,59;-1,03;0,33;0,44;13,30;53,81;13,74;3,25;3,21;53,90;54,41;13,30;53,81;13,74;3,25;3,21;53,90;54,41;1,82;14,73;3,76;21,76;650333
IF_LD_R4_8502001_JAM2_-55, SUBCASE 1, Case 1 Time 1.;89;-1,86;-1,73;-5,05;-1,65;-0,90;0,48;0,94;15,27;53,94;10,33;2,93;3,04;54,03;53,74;15,27;53,94;10,33;2,93;3,04;54,03;53,74;2,86;16,96;3,05;21,50;650333
IF_LD_R4_8502001_JAM2M_INSF_23, SUBCASE 1, Case 1 Time 1.;127;-2,25;-1,08;-3,20;-1,61;-1,01;0,51;1,02;12,21;52,97;12,97;3,15;3,11;53,06;53,40;12,21;52,97;12,97;3,15;3,11;53,06;53,40;1,80;14,33;3,34;21,36;650333
IF_IP2_R4_8502005_DIS3_82, SUBCASE 1, Case 1 Time 1.;63;-2,05;-0,95;-3,81;-1,48;-0,89;0,04;0,26;14,09;51,88;11,78;3,04;3,02;51,97;52,10;14,09;51,88;11,78;3,04;3,02;51,97;52,10;2,30;16,00;3,60;20,84;650333
IF_TO_R4_8502005_DIS3_23, SUBCASE 1, Case 1 Time 1.;64;-1,92;-1,26;-4,25;-1,49;-0,87;0,13;0,44;13,18;51,85;10,95;2,92;2,95;51,94;51,88;13,18;51,85;10,95;2,92;2,95;51,94;51,88;2,51;16,10;3,33;20,75;650333
IF_TO_R4_8502005_JAM2M_OUT_-55, SUBCASE 1, Case 1 Time 1.;122;-1,73;-1,75;-5,23;-1,59;-0,83;0,23;0,65;15,84;51,98;9,38;2,77;2,89;52,07;51,68;15,84;51,98;9,38;2,77;2,89;52,07;51,68;2,98;16,96;2,94;20,67;650333
IF_IP2_R4_8502005_23, SUBCASE 1, Case 1 Time 1.;7;-1,91;-1,25;-4,25;-1,49;-0,87;0,15;0,47;13,36;51,64;10,86;2,93;2,94;51,74;51,68;13,36;51,64;10,86;2,93;2,94;51,74;51,68;2,49;15,98;3,30;20,67;650333
IF_TO_R4_8502005_JAM2_23, SUBCASE 1, Case 1 Time 1.;82;-1,96;-1,21;-3,97;-1,51;-0,90;0,32;0,67;12,89;51,51;11,24;2,96;3,00;51,60;51,63;12,89;51,51;11,24;2,96;3,00;51,60;51,63;2,33;15,55;3,28;20,65;650333
IF_IP2_R4_8502005_JAM2_82, SUBCASE 1, Case 1 Time 1.;81;-2,03;-0,85;-3,42;-1,45;-0,89;0,12;0,35;13,34;49,71;11,70;2,97;2,95;49,80;50,03;13,34;49,71;11,70;2,97;2,95;49,80;50,03;2,04;14,88;3,46;20,01;650333
IF_LD_R2_8502001_JAM2M_INSF_23, SUBCASE 1, Case 1 Time 1.;124;-2,11;-0,98;-2,93;-1,50;-0,94;0,54;0,93;11,30;49,10;12,11;2,92;2,87;49,18;49,52;11,30;49,10;12,11;2,92;2,87;49,18;49,52;1,65;13,25;3,10;19,81;650333
IF_CR_R1_8501009_DIS3_23, SUBCASE 1, Case 1 Time 1.;55;-1,76;-1,24;-4,36;-1,43;-0,81;0,12;0,32;13,04;49,34;9,93;2,74;2,83;49,43;49,28;13,04;49,34;9,93;2,74;2,83;49,43;49,28;2,56;15,70;3,15;19,71;650333
IF_LD_R4_8502001_23, SUBCASE 1, Case 1 Time 1.;16;-1,83;-1,19;-3,70;-1,50;-0,86;0,39;0,61;12,22;48,76;10,58;2,84;2,91;48,85;48,86;12,22;48,76;10,58;2,84;2,91;48,85;48,86;2,16;14,74;3,02;19,54;650333
IF_LD_R2_8502001_JAM2_-55, SUBCASE 1, Case 1 Time 1.;86;-1,67;-1,60;-4,63;-1,50;-0,82;0,47;0,88;14,00;48,86;9,30;2,64;2,76;48,95;48,68;14,00;48,86;9,30;2,64;2,76;48,95;48,68;2,61;15,33;2,73;19,47;650333
IF_LD_R4_8502001_DIS3_23, SUBCASE 1, Case 1 Time 1.;70;-1,82;-1,17;-3,83;-1,42;-0,83;0,23;0,54;12,16;48,45;10,42;2,76;2,81;48,54;48,52;12,16;48,45;10,42;2,76;2,81;48,54;48,52;2,23;14,70;3,05;19,41;650333
IF_TO_R4_8502005_23, SUBCASE 1, Case 1 Time 1.;10;-1,77;-1,18;-3,86;-1,45;-0,83;0,23;0,55;12,31;48,23;10,22;2,77;2,83;48,31;48,27;12,31;48,23;10,22;2,77;2,83;48,31;48,27;2,27;14,91;3,04;19,31;650333
IF_CR_R1_8501009_DIS1_23, SUBCASE 1, Case 1 Time 1.;37;-1,71;-1,23;-4,37;-1,35;-0,80;0,34;0,51;13,04;48,09;9,54;2,65;2,77;48,17;48,02;13,04;48,09;9,54;2,65;2,77;48,17;48,02;2,59;15,32;3,11;19,21;650333
IF_LD_R4_8502001_JAM2M_INSF_82, SUBCASE 1, Case 1 Time 1.;129;-2,17;-1,06;-2,21;-1,49;-0,95;0,27;0,44;11,54;47,32;12,68;2,98;2,91;47,41;47,98;11,54;47,32;12,68;2,98;2,91;47,41;47,98;1,28;12,41;3,22;19,19;650333
IF_LD_R2_8502001_23, SUBCASE 1, Case 1 Time 1.;13;-1,84;-1,11;-3,46;-1,44;-0,86;0,39;0,48;11,71;47,66;10,65;2,79;2,84;47,75;47,82;11,71;47,66;10,65;2,79;2,84;47,75;47,82;2,02;14,08;2,98;19,13;650333
IF_IP2_R4_8502005_JAM2M_OUT_23, SUBCASE 1, Case 1 Time 1.;115;-1,68;-1,23;-4,15;-1,42;-0,78;0,02;0,31;12,58;47,52;9,51;2,69;2,73;47,60;47,45;12,58;47,52;9,51;2,69;2,73;47,60;47,45;2,46;15,40;3,03;18,98;650333
IF_LD_R4_8502001_JAM2_23, SUBCASE 1, Case 1 Time 1.;88;-1,75;-1,16;-3,61;-1,45;-0,82;0,33;0,65;11,79;46,65;9,98;2,72;2,80;46,73;46,70;11,79;46,65;9,98;2,72;2,80;46,73;46,70;2,12;14,25;2,87;18,68;650333
IF_TO_R4_8502005_DIS3_82, SUBCASE 1, Case 1 Time 1.;66;-1,83;-0,82;-3,26;-1,35;-0,81;0,01;0,24;12,50;46,13;10,64;2,74;2,76;46,22;46,37;12,50;46,13;10,64;2,74;2,76;46,22;46,37;1,97;14,12;3,19;18,55;650333
IF_IP2_R4_8502005_82, SUBCASE 1, Case 1 Time 1.;9;-1,82;-0,81;-3,27;-1,35;-0,81;0,03;0,25;12,70;46,02;10,57;2,76;2,76;46,11;46,26;12,70;46,02;10,57;2,76;2,76;46,11;46,26;1,97;14,15;3,19;18,50;650333
IF_TO_R4_8502005_JAM2_82, SUBCASE 1, Case 1 Time 1.;84;-1,86;-0,78;-2,98;-1,38;-0,84;0,19;0,42;12,20;45,77;10,90;2,78;2,80;45,85;46,09;12,20;45,77;10,90;2,78;2,80;45,85;46,09;1,80;13,58;3,14;18,44;650333
IF_TO_R4_8502005_JAM2M_OUT_23, SUBCASE 1, Case 1 Time 1.;121;-1,62;-1,17;-3,77;-1,39;-0,75;0,08;0,35;11,61;44,51;8,98;2,56;2,64;44,59;44,46;11,61;44,51;8,98;2,56;2,64;44,59;44,46;2,24;14,28;2,78;17,78;650333
IF_LD_R2_8502001_JAM2M_INSF_82, SUBCASE 1, Case 1 Time 1.;126;-2,02;-1,33;-1,96;-1,37;-0,88;0,29;0,68;10,64;43,44;11,81;2,75;2,68;43,52;44,09;10,64;43,44;11,81;2,75;2,68;43,52;44,09;1,12;11,30;2,98;17,64;650333
IF_CR_R1_8501009_DIS3_82, SUBCASE 1, Case 1 Time 1.;57;-1,66;-0,81;-3,40;-1,28;-0,75;0,24;0,37;12,35;43,61;9,61;2,57;2,64;43,69;43,75;12,35;43,61;9,61;2,57;2,64;43,69;43,75;2,07;13,94;3,06;17,50;650333
IF_LD_R4_8502001_82, SUBCASE 1, Case 1 Time 1.;18;-1,75;-0,75;-2,67;-1,36;-0,80;0,27;0,37;11,58;43,21;10,30;2,68;2,72;43,29;43,51;11,58;43,21;10,30;2,68;2,72;43,29;43,51;1,64;12,85;2,89;17,40;650333
IF_IP1_R1_8502005_JAM2_-55, SUBCASE 1, Case 1 Time 1.;77;-1,47;-1,44;-4,62;-1,19;-0,69;0,06;0,41;13,73;43,71;7,90;2,21;2,30;43,79;43,48;13,73;43,71;7,90;2,21;2,30;43,79;43,48;2,63;14,15;2,59;17,39;650333
IF_LD_R4_8502001_DIS3_82, SUBCASE 1, Case 1 Time 1.;72;-1,72;-0,73;-2,83;-1,29;-0,77;0,11;0,30;11,48;42,73;10,10;2,58;2,61;42,81;43,01;11,48;42,73;10,10;2,58;2,61;42,81;43,01;1,72;12,84;2,94;17,20;650333
IF_TO_R4_8502005_82, SUBCASE 1, Case 1 Time 1.;12;-1,68;-0,75;-2,86;-1,30;-0,77;0,11;0,30;11,65;42,60;9,92;2,61;2,64;42,68;42,85;11,65;42,60;9,92;2,61;2,64;42,68;42,85;1,74;12,97;2,91;17,14;650333
IF_LD_R2_8502001_82, SUBCASE 1, Case 1 Time 1.;15;-1,75;-0,68;-2,46;-1,32;-0,80;0,23;0,29;11,08;42,12;10,37;2,62;2,65;42,20;42,50;11,08;42,12;10,37;2,62;2,65;42,20;42,50;1,49;12,17;2,85;17,00;650333
IF_CR_R1_8501009_DIS1_82, SUBCASE 1, Case 1 Time 1.;39;-1,61;-0,80;-3,42;-1,20;-0,74;0,47;0,68;11,54;42,37;9,22;2,48;2,57;42,45;42,49;11,54;42,37;9,22;2,48;2,57;42,45;42,49;2,10;13,55;3,01;17,00;650333
IF_IP2_R4_8502005_JAM2M_OUT_82, SUBCASE 1, Case 1 Time 1.;117;-1,59;-0,79;-3,14;-1,27;-0,72;0,14;0,26;11,90;41,80;9,17;2,52;2,54;41,88;41,92;11,90;41,80;9,17;2,52;2,54;41,88;41,92;1,93;13,40;2,87;16,77;650333
IF_LD_R2_8502001_JAM2_23, SUBCASE 1, Case 1 Time 1.;85;-1,55;-1,02;-3,19;-1,30;-0,74;0,32;0,57;10,45;41,53;8,94;2,43;2,51;41,60;41,59;10,45;41,53;8,94;2,43;2,51;41,60;41,59;1,88;12,70;2,58;16,64;650333
IF_IP1_R1_8502005_-55, SUBCASE 1, Case 1 Time 1.;5;-1,36;-1,41;-4,52;-1,15;-0,65;0,03;0,37;13,48;41,60;7,30;2,09;2,19;41,67;41,34;13,48;41,60;7,30;2,09;2,19;41,67;41,34;2,57;13,66;2,44;16,54;650333
IF_LD_R4_8502001_JAM2_82, SUBCASE 1, Case 1 Time 1.;90;-1,66;-0,72;-2,60;-1,30;-0,76;0,20;0,41;11,15;41,05;9,68;2,55;2,61;41,13;41,32;11,15;41,05;9,68;2,55;2,61;41,13;41,32;1,60;12,38;2,75;16,53;650333
IF_LD_R2_8502001_FS11_-55, SUBCASE 1, Case 1 Time 1.;32;-1,59;-1,17;-3,24;-1,20;-0,83;0,60;1,02;9,60;40,87;9,06;2,27;2,48;40,93;41,04;9,60;40,87;9,06;2,27;2,48;40,93;41,04;1,76;10,66;2,33;16,42;650333
IF_LD_R2_8502001_DIS3_-55, SUBCASE 1, Case 1 Time 1.;68;-1,40;-1,37;-3,95;-1,22;-0,69;0,45;0,72;11,89;40,98;7,80;2,18;2,26;41,05;40,82;11,89;40,98;7,80;2,18;2,26;41,05;40,82;2,20;12,72;2,28;16,33;650333
IF_TO_R4_8502005_JAM2M_OUT_82, SUBCASE 1, Case 1 Time 1.;123;-1,53;-0,73;-2,75;-1,24;-0,69;0,05;0,19;10,94;38,79;8,65;2,39;2,45;38,86;38,93;10,94;38,79;8,65;2,39;2,45;38,86;38,93;1,71;12,30;2,62;15,57;650333
IF_LD_R2_8502001_JAM2_82, SUBCASE 1, Case 1 Time 1.;87;-1,46;-0,59;-2,20;-1,15;-0,68;0,19;0,34;9,81;35,91;8,64;2,26;2,32;35,98;36,18;9,81;35,91;8,64;2,26;2,32;35,98;36,18;1,35;10,73;2,44;14,47;650333
IF_LD_R2_8502001_DIS1_INSF_-55, SUBCASE 1, Case 1 Time 1.;50;-1,21;-1,26;-3,56;-1,10;-0,61;0,45;0,61;10,76;36,22;6,77;1,92;2,00;36,28;36,06;10,76;36,22;6,77;1,92;2,00;36,28;36,06;1,96;11,26;1,96;14,42;650333
IF_IP1_R1_8502005_JAM2_23, SUBCASE 1, Case 1 Time 1.;76;-1,34;-0,85;-3,15;-0,98;-0,60;0,10;0,23;9,34;35,99;7,45;1,97;2,02;36,05;35,99;9,34;35,99;7,45;1,97;2,02;36,05;35,99;1,90;11,58;2,44;14,40;650333
IF_IP1_R1_8502005_23, SUBCASE 1, Case 1 Time 1.;4;-1,24;-0,83;-3,05;-0,94;-0,56;0,14;0,25;8,95;34,11;6,92;1,87;1,93;34,17;34,09;8,95;34,11;6,92;1,87;1,93;34,17;34,09;1,86;11,14;2,30;13,63;650333
IF_LD_R2_8502001_FS11_23, SUBCASE 1, Case 1 Time 1.;31;-1,48;-0,59;-1,79;-1,03;-0,75;0,18;0,52;6,73;33,39;8,67;2,05;2,22;33,45;33,85;6,73;33,39;8,67;2,05;2,22;33,45;33,85;1,01;7,87;2,13;13,54;650333
IF_LD_R2_8502001_DIS3_23, SUBCASE 1, Case 1 Time 1.;67;-1,29;-0,79;-2,49;-1,01;-0,60;0,30;0,37;8,31;33,50;7,42;1,95;2,00;33,56;33,60;8,31;33,50;7,42;1,95;2,00;33,56;33,60;1,47;10,09;2,12;13,44;650333
IF_IP1_R1_8502005_DIS3_-55, SUBCASE 1, Case 1 Time 1.;59;-0,97;-1,14;-3,52;-0,85;-0,47;0,07;0,35;10,55;30,68;5,14;1,50;1,59;30,73;30,44;10,55;30,68;5,14;1,50;1,59;30,73;30,44;1,97;10,07;1,72;12,18;650333
IF_IP1_R1_8502005_JAM2_82, SUBCASE 1, Case 1 Time 1.;78;-1,24;-0,48;-2,26;-0,85;-0,54;0,23;0,34;8,62;30,06;7,08;1,79;1,81;30,12;30,27;8,62;30,06;7,08;1,79;1,81;30,12;30,27;1,33;9,35;2,25;12,11;650333
IF_IP1_R1_8502005_DIS1_-55, SUBCASE 1, Case 1 Time 1.;41;-0,95;-1,13;-3,52;-0,81;-0,47;0,03;0,28;10,60;30,19;5,00;1,46;1,56;30,24;29,95;10,60;30,19;5,00;1,46;1,56;30,24;29,95;1,98;9,92;1,70;11,98;650333
IF_IP1_R1_8502005_JAM2M_OUT_-55, SUBCASE 1, Case 1 Time 1.;110;-0,88;-1,30;-4,07;-0,90;-0,41;0,46;0,63;12,64;29,77;4,99;1,41;1,61;29,82;29,35;12,64;29,77;4,99;1,41;1,61;29,82;29,35;2,37;10,99;1,59;11,74;650333
IF_LD_R4_8502001_FS11_-55, SUBCASE 1, Case 1 Time 1.;35;-0,98;-1,03;-2,68;-0,89;-0,55;0,48;0,64;8,18;28,79;5,59;1,57;1,73;28,83;28,73;8,18;28,79;5,59;1,57;1,73;28,83;28,73;1,44;8,23;1,46;11,49;650333
IF_IP1_R1_8502005_82, SUBCASE 1, Case 1 Time 1.;6;-1,15;-0,50;-2,17;-0,80;-0,50;0,27;0,39;8,27;28,36;6,60;1,70;1,73;28,42;28,54;8,27;28,36;6,60;1,70;1,73;28,42;28,54;1,29;8,95;2,12;11,42;650333
IF_LD_R2_8502001_DIS1_INSF_23, SUBCASE 1, Case 1 Time 1.;49;-1,09;-0,67;-2,06;-0,88;-0,52;0,22;0,28;7,00;28,36;6,31;1,67;1,72;28,41;28,45;7,00;28,36;6,31;1,67;1,72;28,41;28,45;1,18;8,32;1,73;11,38;650333
IF_LD_R2_8502001_FS11_82, SUBCASE 1, Case 1 Time 1.;33;-1,62;-1,88;-0,94;-0,90;-0,68;0,33;0,43;6,07;27,68;8,35;1,87;2,01;27,72;28,39;6,07;27,68;8,35;1,87;2,01;27,72;28,39;0,49;6,01;2,02;11,36;650333
IF_LD_R2_8502001_DIS3_82, SUBCASE 1, Case 1 Time 1.;69;-1,19;-0,35;-1,54;-0,88;-0,54;0,15;0,15;7,63;27,77;7,10;1,78;1,79;27,82;28,09;7,63;27,77;7,10;1,78;1,79;27,82;28,09;0,92;8,03;1,96;11,23;650333
IF_LD_R4_8502001_DIS1_INSF_-55, SUBCASE 1, Case 1 Time 1.;53;-0,90;-1,06;-2,81;-0,86;-0,44;0,33;0,46;8,65;26,45;4,52;1,39;1,49;26,49;26,25;8,65;26,45;4,52;1,39;1,49;26,49;26,25;1,53;8,41;1,29;10,50;650333
IF_IP1_R1_8502005_DIS3_23, SUBCASE 1, Case 1 Time 1.;58;-0,85;-0,56;-2,06;-0,64;-0,39;0,09;0,16;6,02;23,18;4,75;1,27;1,32;23,22;23,18;6,02;23,18;4,75;1,27;1,32;23,22;23,18;1,25;7,49;1,57;9,27;650333
IF_LD_R2_8502001_DIS1_INSF_82, SUBCASE 1, Case 1 Time 1.;51;-0,99;-0,79;-1,12;-0,74;-0,45;0,10;0,16;6,29;22,47;5,96;1,49;1,50;22,51;22,78;6,29;22,47;5,96;1,49;1,50;22,51;22,78;0,66;6,41;1,61;9,11;650333
IF_IP1_R1_8502005_DIS1_23, SUBCASE 1, Case 1 Time 1.;40;-0,84;-0,55;-2,06;-0,61;-0,38;0,18;0,25;6,05;22,68;4,61;1,24;1,29;22,72;22,67;6,05;22,68;4,61;1,24;1,29;22,72;22,67;1,26;7,33;1,55;9,07;650333
IF_IP1_R1_8502005_JAM2M_OUT_23, SUBCASE 1, Case 1 Time 1.;109;-0,59;-0,76;-2,61;-0,69;-0,33;0,62;0,90;8,09;22,17;3,52;1,18;1,35;22,21;21,95;8,09;22,17;3,52;1,18;1,35;22,21;21,95;1,58;8,06;1,38;8,78;650333
IF_TO_R4_8502005_FS11_-55, SUBCASE 1, Case 1 Time 1.;29;-0,76;-0,92;-2,39;-0,71;-0,38;0,27;0,41;7,37;21,84;3,64;1,14;1,26;21,88;21,68;7,37;21,84;3,64;1,14;1,26;21,88;21,68;1,28;6,77;1,01;8,67;650333
IF_LD_R4_8502001_FS11_23, SUBCASE 1, Case 1 Time 1.;34;-0,86;-0,45;-1,22;-0,70;-0,46;0,14;0,37;4,66;21,29;5,20;1,34;1,46;21,33;21,50;4,66;21,29;5,20;1,34;1,46;21,33;21,50;0,71;5,56;1,30;8,60;650333
IF_IP2_R4_8502005_FS11_-55, SUBCASE 1, Case 1 Time 1.;26;-0,72;-0,89;-2,37;-0,65;-0,35;0,28;0,40;7,24;20,55;3,26;1,05;1,13;20,58;20,37;7,24;20,55;3,26;1,05;1,13;20,58;20,37;1,27;6,53;0,96;8,15;650333
IF_TO_R4_8502005_DIS1_-55, SUBCASE 1, Case 1 Time 1.;47;-0,75;-0,90;-2,35;-0,65;-0,33;0,30;0,42;7,29;19,80;3,00;1,00;1,10;19,83;19,59;7,29;19,80;3,00;1,00;1,10;19,83;19,59;1,26;6,45;0,89;7,84;650333
IF_LD_R4_8502001_DIS1_INSF_23, SUBCASE 1, Case 1 Time 1.;52;-0,77;-0,48;-1,35;-0,65;-0,36;0,17;0,23;4,72;18,93;4,14;1,16;1,22;18,97;18,98;4,72;18,93;4,14;1,16;1,22;18,97;18,98;0,79;5,71;1,12;7,59;650333
IF_IP2_R4_8502005_DIS1_-55, SUBCASE 1, Case 1 Time 1.;44;-0,69;-0,86;-2,32;-0,59;-0,30;0,26;0,47;7,12;18,79;2,77;0,93;1,00;18,82;18,58;7,12;18,79;2,77;0,93;1,00;18,82;18,58;1,25;6,17;0,86;7,43;650333
IF_IP1_R1_8502005_DIS3_82, SUBCASE 1, Case 1 Time 1.;60;-0,76;-0,36;-1,20;-0,51;-0,33;0,09;0,17;5,34;17,43;4,43;1,10;1,12;17,46;17,64;5,34;17,43;4,43;1,10;1,12;17,46;17,64;0,69;5,37;1,41;7,05;650333
IF_IP1_R1_8502005_DIS1_82, SUBCASE 1, Case 1 Time 1.;42;-0,74;-0,44;-1,21;-0,48;-0,32;0,28;0,34;5,01;16,92;4,28;1,06;1,09;16,95;17,12;5,01;16,92;4,28;1,06;1,09;16,95;17,12;0,70;5,21;1,39;6,85;650333
IF_IP1_R1_8502005_JAM2M_OUT_82, SUBCASE 1, Case 1 Time 1.;111;-0,49;-0,85;-1,71;-0,53;-0,26;0,73;1,15;5,41;16,68;3,22;1,01;1,15;16,70;17,02;5,41;16,68;3,22;1,01;1,15;16,70;17,02;1,09;6,27;1,27;6,81;650331
IF_LD_R4_8502001_FS11_82, SUBCASE 1, Case 1 Time 1.;36;-2,13;-2,12;-0,56;-0,58;-0,40;0,16;0,42;4,01;15,56;4,88;1,16;1,25;15,59;16,02;4,01;15,56;4,88;1,16;1,25;15,59;16,02;0,17;3,58;1,16;6,41;650333
IF_TO_R4_8502005_FS11_23, SUBCASE 1, Case 1 Time 1.;28;-0,58;-0,34;-0,94;-0,51;-0,30;0,13;0,32;3,47;14,46;3,28;0,92;1,00;14,49;14,54;3,47;14,46;3,28;0,92;1,00;14,49;14,54;0,54;4,08;0,85;5,82;650333
IF_LD_R4_8502001_DIS1_INSF_82, SUBCASE 1, Case 1 Time 1.;54;-1,60;-1,60;-0,43;-0,50;-0,30;0,12;0,17;4,04;13,18;3,82;0,98;1,01;13,21;13,46;4,04;13,18;3,82;0,98;1,01;13,21;13,46;0,25;3,71;0,98;5,39;650333
IF_IP2_R4_8502005_FS11_23, SUBCASE 1, Case 1 Time 1.;25;-0,52;-0,31;-0,93;-0,44;-0,27;0,14;0,18;3,33;13,23;2,92;0,83;0,87;13,25;13,28;3,33;13,23;2,92;0,83;0,87;13,25;13,28;0,52;3,78;0,78;5,31;650333
IF_TO_R4_8502005_DIS1_23, SUBCASE 1, Case 1 Time 1.;46;-0,50;-0,32;-0,89;-0,44;-0,24;0,10;0,14;3,11;12,29;2,61;0,77;0,83;12,31;12,31;3,11;12,29;2,61;0,77;0,83;12,31;12,31;0,52;3,71;0,71;4,92;650333
IF_IP2_R4_8502005_DIS1_23, SUBCASE 1, Case 1 Time 1.;43;-0,43;-0,28;-0,86;-0,37;-0,22;0,10;0,13;2,90;11,20;2,36;0,69;0,72;11,22;11,22;2,90;11,20;2,36;0,69;0,72;11,22;11,22;0,51;3,48;0,70;4,49;650333
IF_CR_R1_8501009_FS11_-55, SUBCASE 1, Case 1 Time 1.;20;-0,70;-0,94;-1,99;-0,48;-0,21;0,02;0,17;6,81;10,65;2,31;0,45;0,59;10,66;10,58;6,81;10,65;2,31;-0,48;0,59;10,66;10,58;1,09;4,67;0,22;4,23;650315
IF_TO_R4_8502005_FS11_82, SUBCASE 1, Case 1 Time 1.;30;-2,38;-2,10;-0,57;-0,36;-0,24;0,11;0,15;2,83;8,83;2,98;0,75;0,79;8,84;9,22;2,83;8,83;2,98;0,75;0,79;8,84;9,22;0,02;2,16;0,72;3,69;650332
IF_LD_JAM2M_IN_82, SUBCASE 1, Case 1 Time 1.;108;-5,64;-9,03;-1,75;-0,37;-0,59;0,09;0,14;0,30;0,68;1,59;0,55;0,15;9,04;8,90;-5,64;-9,03;-1,75;0,55;-0,59;9,04;8,90;-0,87;-2,94;-0,36;3,56;650333
IF_IP1_JAM2M_OUT_-55, SUBCASE 1, Case 1 Time 1.;92;-0,46;-0,89;-1,68;-0,68;-0,15;0,04;0,18;6,46;8,73;1,83;0,34;0,59;8,74;8,57;6,46;8,73;1,83;-0,68;0,59;8,74;8,57;0,91;2,99;0,19;3,43;650333
IF_IP2_JAM2M_OUT_-55, SUBCASE 1, Case 1 Time 1.;98;-0,46;-0,84;-1,64;-0,57;-0,14;0,07;0,21;6,14;8,48;1,76;0,31;0,49;8,49;8,31;6,14;8,48;1,76;-0,57;0,49;8,49;8,31;0,87;2,96;0,20;3,32;650333
IF_IP2_R4_8502005_FS11_82, SUBCASE 1, Case 1 Time 1.;27;-2,40;-2,00;-0,54;-0,30;-0,20;0,05;0,06;2,70;7,63;2,63;0,66;0,67;7,64;8,14;2,70;7,63;2,63;0,66;0,67;7,64;8,14;0,01;1,94;0,68;3,26;650331
IF_IP2_JAM2M_IN_-55, SUBCASE 1, Case 1 Time 1.;95;-0,48;-0,62;-1,40;-0,26;-0,21;0,19;0,30;4,58;8,01;1,38;0,26;0,29;8,03;7,85;4,58;8,01;-1,40;-0,26;0,29;8,03;7,85;0,67;2,85;0,24;3,14;650333
IF_TO_JAM2M_OUT_-55, SUBCASE 1, Case 1 Time 1.;104;-0,44;-0,85;-1,61;-0,60;-0,13;0,04;0,18;6,17;8,00;1,75;0,28;0,48;8,01;7,84;6,17;8,00;1,75;-0,60;0,48;8,01;7,84;0,86;2,79;0,17;3,14;650333
IF_IP1_R1_8502005_FS11_-55, SUBCASE 1, Case 1 Time 1.;23;-0,54;-0,84;-1,61;-0,38;-0,18;0,05;0,19;5,81;7,55;1,72;0,20;0,27;7,56;7,59;5,81;7,55;1,72;-0,38;0,27;7,56;7,59;0,84;3,14;0,07;3,04;650327
IF_TO_R4_8502005_DIS1_82, SUBCASE 1, Case 1 Time 1.;48;-2,33;-1,96;-0,53;-0,29;-0,18;0,02;0,03;2,44;6,55;2,29;0,60;0,62;6,56;7,35;2,44;6,55;2,29;0,60;0,62;6,56;7,35;-0,01;1,76;0,58;2,94;650331
IF_TO_JAM2M_IN_-55, SUBCASE 1, Case 1 Time 1.;101;-0,48;-0,62;-1,31;-0,26;-0,21;0,21;0,32;4,41;7,08;1,27;0,25;0,25;7,09;6,92;4,41;7,08;-1,31;-0,26;0,25;7,09;6,92;0,61;2,58;0,17;2,77;650333
IF_IP2_R4_8502005_DIS1_82, SUBCASE 1, Case 1 Time 1.;45;-2,42;-2,13;-0,52;-0,23;-0,17;0,00;0,09;2,21;5,40;2,03;0,51;0,51;5,41;6,27;-2,42;5,40;2,03;0,51;0,51;5,41;6,27;-0,03;1,44;0,55;2,51;650331
IF_IP1_R1_8502005_FS11_82, SUBCASE 1, Case 1 Time 1.;24;-3,36;-6,25;-0,93;-0,19;-0,20;0,02;0,32;0,26;0,44;0,93;0,19;0,12;6,26;6,19;-3,36;-6,25;-0,93;-0,19;-0,20;6,26;6,19;-0,42;-1,47;-0,21;2,47;650333
IF_CR_R1_8501009_FS11_23, SUBCASE 1, Case 1 Time 1.;19;-0,33;-0,22;-0,85;-0,28;-0,08;0,16;0,24;1,98;6,15;0,86;0,24;0,33;6,17;6,10;1,98;6,15;0,86;-0,28;0,33;6,17;6,10;0,39;2,22;0,12;2,44;650314
IF_TO_JAM2M_IN_82, SUBCASE 1, Case 1 Time 1.;102;-4,74;-5,94;-1,35;-0,22;-0,38;0,02;0,12;0,33;0,65;1,24;0,46;0,10;5,95;5,91;-4,74;-5,94;-1,35;0,46;-0,38;5,95;5,91;-0,65;-2,06;-0,12;2,36;650327
IF_IP2_JAM2M_IN_82, SUBCASE 1, Case 1 Time 1.;96;-4,58;-5,44;-1,26;-0,18;-0,34;0,03;0,13;0,34;0,65;1,16;0,46;0,10;5,44;5,54;-4,58;-5,44;-1,26;0,46;-0,34;5,44;5,54;-0,60;-1,80;-0,05;2,21;650318
IF_TO_JAM2M_OUT_82, SUBCASE 1, Case 1 Time 1.;105;-3,00;-4,90;-0,86;-0,25;-0,22;0,20;0,35;0,38;0,44;0,92;0,23;0,18;4,91;4,79;-3,00;-4,90;0,92;-0,25;-0,22;4,91;4,79;-0,39;-1,79;-0,10;1,91;650333
IF_LD_JAM2M_IN_-55, SUBCASE 1, Case 1 Time 1.;107;-0,54;-0,59;-0,95;-0,31;-0,25;0,16;0,49;3,48;4,49;0,88;0,33;0,31;4,49;4,50;3,48;4,49;-0,95;0,33;0,31;4,49;4,50;0,39;1,67;-0,08;1,80;650324
IF_IP2_JAM2M_OUT_82, SUBCASE 1, Case 1 Time 1.;99;-3,02;-4,38;-0,84;-0,21;-0,20;0,17;0,31;0,35;0,45;0,89;0,20;0,16;4,39;4,28;-3,02;-4,38;0,89;-0,21;-0,20;4,39;4,28;-0,38;-1,61;-0,07;1,71;650333
IF_IP1_JAM2M_OUT_82, SUBCASE 1, Case 1 Time 1.;93;-2,75;-4,32;-0,79;-0,29;-0,25;0,19;0,37;0,36;0,41;0,87;0,25;0,22;4,33;4,23;-2,75;-4,32;0,87;-0,29;-0,25;4,33;4,23;-0,35;-1,64;-0,09;1,69;650333
IF_CR_R1_8501009_FS11_82, SUBCASE 1, Case 1 Time 1.;21;-2,35;-2,69;-0,80;-0,20;-0,11;0,14;0,26;1,03;3,68;0,66;0,12;0,19;3,69;3,82;-2,35;3,68;-0,80;-0,20;0,19;3,69;3,82;-0,17;0,08;-0,06;1,53;650314
IF_LD_JAM2M_IN_23, SUBCASE 1, Case 1 Time 1.;106;-1,73;-3,44;-0,64;-0,21;-0,38;0,23;0,34;0,09;0,24;0,52;0,37;0,18;3,45;3,47;-1,73;-3,44;-0,64;0,37;-0,38;3,45;3,47;-0,34;-1,00;-0,24;1,39;650333
IF_IP1_R1_8502005_FS11_23, SUBCASE 1, Case 1 Time 1.;22;-0,23;-0,63;-0,83;-0,11;-0,07;0,08;0,18;0,62;2,30;0,27;0,05;0,05;2,30;2,60;0,62;2,30;-0,83;-0,11;-0,07;2,30;2,60;0,11;0,48;-0,09;1,04;650314
IF_IP1_JAM2M_OUT_23, SUBCASE 1, Case 1 Time 1.;91;-0,10;-0,59;-0,29;-0,38;-0,15;0,02;0,16;1,19;1,37;0,34;0,14;0,32;1,37;1,43;1,19;1,37;0,34;-0,38;0,32;1,37;1,43;0,21;0,55;0,08;0,57;650318
IF_IP2_JAM2M_IN_23, SUBCASE 1, Case 1 Time 1.;94;-0,65;-0,63;-0,17;-0,12;-0,14;0,01;0,16;0,35;1,01;0,42;0,28;0,11;1,02;1,28;-0,65;1,01;0,42;0,28;-0,14;1,02;1,28;-0,07;0,14;0,07;0,51;650312
IF_IP2_JAM2M_OUT_23, SUBCASE 1, Case 1 Time 1.;97;-0,07;-0,13;-0,22;-0,25;-0,10;0,03;0,16;0,91;1,19;0,27;0,10;0,22;1,19;1,23;0,91;1,19;0,27;-0,25;0,22;1,19;1,23;0,13;0,29;0,04;0,49;650333
IF_TO_JAM2M_OUT_23, SUBCASE 1, Case 1 Time 1.;103;-0,14;-0,65;-0,23;-0,30;-0,13;0,03;0,18;0,93;1,00;0,26;0,13;0,21;1,00;1,08;0,93;1,00;0,26;-0,30;0,21;1,00;1,08;0,12;0,11;0,02;0,43;650318
IF_TO_JAM2M_IN_23, SUBCASE 1, Case 1 Time 1.;100;-0,82;-0,87;-0,23;-0,11;-0,17;0,06;0,18;0,15;0,55;0,21;0,27;0,12;0,87;0,94;-0,82;-0,87;-0,23;0,27;-0,17;0,87;0,94;-0,12;-0,12;0,01;0,38;650318
Ref CID;Coord Material;;;;;;;;;;;;;;;;;;;;;;;;;;
