LC_Name;LC_ID;qxMin;qyMin;qxyMin;qxzMin;qyzMin;qshearMin;qvonmisesMin;qxMax;qyMax;qxyMax;qxzMax;qyzMax;qshearMax;qvonmisesMax;qxAbsMax;qyAbsMax;qxyAbsMax;qxzAbsMax;qyzAbsMax;qshearAbsMax;qvonmisesAbsMax;qxAverage;qyAverage;qxyAverage;sigmaVonMisesMax;CriticalElemID
IF_CR_R1_8501009_JAM2_-55, SUBCASE 1, Case 1 Time 1.;74;-56,26;-30,34;-17,22;-1,96;-1,19;0,61;21,24;43,45;30,66;14,97;0,63;1,23;56,33;55,23;-56,26;30,66;-17,22;-1,96;1,23;56,33;55,23;1,39;2,82;-1,33;20,60;650466
IF_CR_R1_8501009_-55, SUBCASE 1, Case 1 Time 1.;2;-56,31;-30,44;-16,94;-1,98;-1,17;0,71;20,92;43,04;30,01;14,75;0,62;1,21;56,37;55,26;-56,31;-30,44;-16,94;-1,98;1,21;56,37;55,26;1,24;2,66;-1,29;20,28;650466
IF_CR_R1_8501009_JAM2_23, SUBCASE 1, Case 1 Time 1.;73;-59,68;-32,04;-16,71;-2,23;-1,14;1,00;21,30;40,60;29,26;14,46;0,62;1,08;59,76;58,48;-59,68;-32,04;-16,71;-2,23;-1,14;59,76;58,48;0,33;1,73;-1,32;19,37;650466
IF_CR_R1_8501009_23, SUBCASE 1, Case 1 Time 1.;1;-59,71;-32,13;-16,50;-2,25;-1,12;0,88;21,06;40,25;28,71;14,26;0,62;1,06;59,80;58,50;-59,71;-32,13;-16,50;-2,25;-1,12;59,80;58,50;0,20;1,56;-1,24;19,09;650466
IF_CR_R1_8501009_JAM2_82, SUBCASE 1, Case 1 Time 1.;75;-62,44;-33,52;-16,38;-2,43;-1,24;0,88;21,69;38,54;28,22;14,14;0,63;0,97;62,54;61,14;-62,44;-33,52;-16,38;-2,43;-1,24;62,54;61,14;-0,48;0,91;-1,31;18,48;650466
IF_CR_R1_8501009_82, SUBCASE 1, Case 1 Time 1.;3;-62,47;-33,60;-16,19;-2,45;-1,23;1,05;21,50;38,24;27,73;13,98;0,63;0,95;62,57;61,15;-62,47;-33,60;-16,19;-2,45;-1,23;62,57;61,15;-0,60;0,80;-1,28;18,23;650466
IF_IP2_R4_8502005_DIS3_-55, SUBCASE 1, Case 1 Time 1.;62;-38,51;-20,41;-12,67;-1,34;-0,86;0,51;14,24;32,27;23,30;10,92;0,45;0,94;38,55;38,61;-38,51;23,30;-12,67;-1,34;0,94;38,55;38,61;1,64;2,66;-0,99;15,44;650466
IF_IP2_R4_8502005_JAM2M_IN_-55, SUBCASE 1, Case 1 Time 1.;113;-30,00;-15,28;-12,32;-1,21;-0,88;0,50;11,63;30,90;24,55;10,49;0,48;0,93;30,93;38,25;30,90;24,55;-12,32;-1,21;0,93;30,93;38,25;2,82;3,63;-1,01;15,30;650466
IF_IP2_R4_8502005_JAM2_-55, SUBCASE 1, Case 1 Time 1.;80;-33,54;-17,70;-11,52;-1,14;-0,80;0,45;12,31;29,59;22,16;9,89;0,41;0,87;33,57;35,83;-33,54;22,16;-11,52;-1,14;0,87;33,57;35,83;1,88;2,79;-0,89;14,33;650466
IF_IP2_R4_8502005_DIS3_23, SUBCASE 1, Case 1 Time 1.;61;-42,05;-22,19;-12,12;-1,61;-0,83;0,92;15,15;29,53;22,01;10,46;0,45;0,79;42,11;41,19;-42,05;-22,19;-12,12;-1,61;-0,83;42,11;41,19;0,58;1,57;-0,99;14,29;650466
IF_IP2_R4_8502005_JAM2M_IN_23, SUBCASE 1, Case 1 Time 1.;112;-33,58;-17,05;-11,65;-1,18;-0,85;0,57;13,52;28,54;23,20;9,89;0,42;0,78;33,63;35,31;-33,58;23,20;-11,65;-1,18;-0,85;33,63;35,31;1,72;2,51;-1,00;14,13;650466
IF_CR_R1_8501009_DIS3_-55, SUBCASE 1, Case 1 Time 1.;56;-36,62;-19,65;-11,57;-1,27;-0,77;0,51;13,42;29,62;20,66;10,05;0,42;0,87;36,66;35,94;-36,62;20,66;-11,57;-1,27;0,87;36,66;35,94;1,20;2,19;-0,87;13,99;650466
IF_IP2_R4_8502005_-55, SUBCASE 1, Case 1 Time 1.;8;-34,13;-18,18;-11,15;-1,19;-0,77;0,53;12,36;29,08;21,13;9,58;0,39;0,85;34,17;34,66;-34,13;21,13;-11,15;-1,19;0,85;34,17;34,66;1,58;2,50;-0,84;13,86;650466
IF_TO_R4_8502005_DIS3_-55, SUBCASE 1, Case 1 Time 1.;65;-33,65;-17,68;-11,19;-1,20;-0,73;0,62;12,10;28,98;20,99;9,63;0,41;0,85;33,69;34,60;-33,65;20,99;-11,19;-1,20;0,85;33,69;34,60;1,65;2,55;-0,87;13,84;650466
IF_CR_R1_8501009_DIS1_-55, SUBCASE 1, Case 1 Time 1.;38;-36,05;-19,29;-11,69;-1,18;-0,79;0,51;13,63;28,71;19,57;10,26;0,43;0,87;36,09;35,46;-36,05;19,57;-11,69;-1,18;0,87;36,09;35,46;0,99;1,98;-0,87;13,65;650466
IF_TO_R4_8502005_JAM2M_IN_INSF_-55, SUBCASE 1, Case 1 Time 1.;119;-25,40;-12,70;-10,69;-1,05;-0,73;0,27;9,35;27,83;22,13;9,03;0,48;0,82;27,86;34,04;27,83;22,13;-10,69;-1,05;0,82;27,86;34,04;2,80;3,48;-0,88;13,62;650466
IF_IP2_R4_8502005_JAM2M_OUT_-55, SUBCASE 1, Case 1 Time 1.;116;-35,42;-19,05;-10,93;-1,27;-0,75;0,48;12,76;28,77;20,04;9,43;0,39;0,83;35,45;34,75;-35,42;20,04;-10,93;-1,27;0,83;35,45;34,75;1,19;2,15;-0,79;13,48;650466
IF_IP2_R4_8502005_DIS3_82, SUBCASE 1, Case 1 Time 1.;63;-44,87;-23,70;-11,82;-1,81;-0,91;0,47;15,54;27,54;21,05;10,14;0,49;0,68;44,94;43,90;-44,87;-23,70;-11,82;-1,81;-0,91;44,94;43,90;-0,22;0,76;-0,98;13,44;650466
IF_IP2_R4_8502005_JAM2M_IN_82, SUBCASE 1, Case 1 Time 1.;114;-36,42;-18,55;-11,23;-1,39;-0,87;0,85;13,97;26,80;22,19;9,48;0,42;0,66;36,48;35,72;-36,42;22,19;-11,23;-1,39;-0,87;36,48;35,72;0,93;1,71;-1,00;13,28;650466
IF_IP2_R4_8502005_JAM2_23, SUBCASE 1, Case 1 Time 1.;79;-37,16;-19,52;-10,98;-1,42;-0,77;0,60;13,39;27,03;20,86;9,36;0,40;0,72;37,21;36,40;-37,16;20,86;-10,98;-1,42;-0,77;37,21;36,40;0,81;1,69;-0,89;13,18;650466
IF_TO_R4_8502005_JAM2_-55, SUBCASE 1, Case 1 Time 1.;83;-30,01;-15,66;-10,34;-1,06;-0,69;0,42;10,62;27,36;20,54;8,86;0,42;0,80;30,04;32,92;-30,01;20,54;-10,34;-1,06;0,80;30,04;32,92;1,93;2,73;-0,80;13,17;650466
IF_CR_R1_8501009_DIS3_23, SUBCASE 1, Case 1 Time 1.;55;-40,14;-21,45;-11,10;-1,54;-0,74;0,63;14,05;26,90;19,38;9,59;0,41;0,72;40,20;39,30;-40,14;-21,45;-11,10;-1,54;-0,74;40,20;39,30;0,15;1,10;-0,87;12,83;650466
IF_TO_R4_8502005_-55, SUBCASE 1, Case 1 Time 1.;11;-30,59;-16,11;-10,04;-1,11;-0,66;0,52;10,68;26,93;19,65;8,61;0,40;0,78;30,62;31,95;-30,59;19,65;-10,04;-1,11;0,78;30,62;31,95;1,67;2,48;-0,76;12,78;650466
IF_IP2_R4_8502005_23, SUBCASE 1, Case 1 Time 1.;7;-37,73;-20,00;-10,63;-1,46;-0,74;0,85;13,12;26,43;19,89;9,11;0,39;0,70;37,78;36,94;-37,73;-20,00;-10,63;-1,46;-0,74;37,78;36,94;0,52;1,42;-0,84;12,74;650466
IF_TO_R4_8502005_DIS3_23, SUBCASE 1, Case 1 Time 1.;64;-37,19;-19,49;-10,63;-1,47;-0,70;0,75;13,09;26,25;19,70;9,13;0,39;0,70;37,25;36,40;-37,19;19,70;-10,63;-1,47;-0,70;37,25;36,40;0,59;1,46;-0,87;12,68;650466
IF_LD_R4_8502001_DIS3_-55, SUBCASE 1, Case 1 Time 1.;71;-29,58;-15,39;-10,03;-1,08;-0,63;0,36;10,31;26,51;19,49;8,61;0,42;0,78;29,62;31,69;-29,58;19,49;-10,03;-1,08;0,78;29,62;31,69;1,75;2,55;-0,79;12,68;650466
IF_CR_R1_8501009_DIS1_23, SUBCASE 1, Case 1 Time 1.;37;-39,56;-21,07;-11,25;-1,45;-0,76;0,50;14,60;25,95;18,26;9,81;0,43;0,72;39,61;38,81;-39,56;-21,07;-11,25;-1,45;-0,76;39,61;38,81;-0,06;0,90;-0,87;12,49;650466
IF_TO_R4_8502005_JAM2M_IN_INSF_23, SUBCASE 1, Case 1 Time 1.;118;-28,97;-14,47;-10,03;-1,08;-0,70;0,35;11,31;25,51;20,84;8,45;0,36;0,67;29,01;31,16;-28,97;20,84;-10,03;-1,08;-0,70;29,01;31,16;1,73;2,38;-0,88;12,47;650466
IF_LD_R4_8502001_-55, SUBCASE 1, Case 1 Time 1.;17;-28,50;-14,81;-9,51;-1,07;-0,60;0,46;9,62;26,20;19,56;8,11;0,42;0,75;28,53;31,14;-28,50;19,56;-9,51;-1,07;0,75;28,53;31,14;1,91;2,65;-0,73;12,45;650466
IF_TO_R4_8502005_JAM2M_OUT_-55, SUBCASE 1, Case 1 Time 1.;122;-31,89;-16,97;-9,86;-1,18;-0,64;0,39;11,07;26,66;18,67;8,47;0,37;0,76;31,92;31,26;-31,89;18,67;-9,86;-1,18;0,76;31,92;31,26;1,29;2,15;-0,72;12,44;650466
IF_IP2_R4_8502005_JAM2M_OUT_23, SUBCASE 1, Case 1 Time 1.;115;-39,07;-20,91;-10,49;-1,54;-0,72;0,60;13,16;26,13;18,77;9,01;0,39;0,68;39,12;38,23;-39,07;-20,91;-10,49;-1,54;-0,72;39,12;38,23;0,14;1,07;-0,80;12,35;650466
IF_IP2_R4_8502005_JAM2_82, SUBCASE 1, Case 1 Time 1.;81;-40,04;-21,06;-10,60;-1,62;-0,85;0,43;13,76;25,19;19,88;9,05;0,41;0,61;40,10;39,16;-40,04;-21,06;-10,60;-1,62;-0,85;40,10;39,16;0,00;0,88;-0,88;12,35;650466
IF_LD_R4_8502001_JAM2_-55, SUBCASE 1, Case 1 Time 1.;89;-28,29;-14,76;-9,29;-1,07;-0,58;0,43;9,52;25,68;18,91;7,94;0,41;0,74;28,32;30,35;-28,29;18,91;-9,29;-1,07;0,74;28,32;30,35;1,78;2,52;-0,71;12,14;650466
IF_TO_R4_8502005_JAM2_23, SUBCASE 1, Case 1 Time 1.;82;-33,65;-17,51;-9,80;-1,34;-0,66;0,56;11,70;24,87;19,25;8,31;0,36;0,65;33,70;32,92;-33,65;19,25;-9,80;-1,34;-0,66;33,70;32,92;0,86;1,64;-0,81;12,03;650466
IF_CR_R1_8501009_DIS3_82, SUBCASE 1, Case 1 Time 1.;57;-42,94;-22,95;-10,80;-1,74;-0,86;0,47;14,41;24,91;18,41;9,32;0,48;0,61;43,01;41,99;-42,94;-22,95;-10,80;-1,74;-0,86;43,01;41,99;-0,66;0,30;-0,86;11,99;650466
IF_IP2_R4_8502005_82, SUBCASE 1, Case 1 Time 1.;9;-40,59;-21,53;-10,34;-1,67;-0,83;0,48;13,60;24,51;18,95;8,81;0,41;0,59;40,66;39,69;-40,59;-21,53;-10,34;-1,67;-0,83;40,66;39,69;-0,27;0,62;-0,83;11,92;650466
IF_TO_R4_8502005_DIS3_82, SUBCASE 1, Case 1 Time 1.;66;-40,01;-21,00;-10,32;-1,67;-0,79;0,41;13,51;24,30;18,73;8,81;0,47;0,58;40,08;39,10;-40,01;-21,00;-10,32;-1,67;-0,79;40,08;39,10;-0,22;0,65;-0,86;11,84;650466
IF_LD_R2_8502001_-55, SUBCASE 1, Case 1 Time 1.;14;-24,92;-12,78;-8,90;-0,91;-0,57;0,52;8,44;24,69;18,79;7,59;0,43;0,71;24,95;29,46;-24,92;18,79;-8,90;-0,91;0,71;24,95;29,46;2,12;2,77;-0,70;11,78;650466
IF_TO_R4_8502005_23, SUBCASE 1, Case 1 Time 1.;10;-34,21;-17,95;-9,53;-1,38;-0,63;0,66;11,51;24,28;18,42;8,11;0,35;0,63;34,27;33,45;-34,21;18,42;-9,53;-1,38;-0,63;34,27;33,45;0,61;1,41;-0,76;11,66;650466
IF_CR_R1_8501009_DIS1_82, SUBCASE 1, Case 1 Time 1.;39;-42,34;-22,57;-10,96;-1,65;-0,91;0,23;13,55;23,94;17,28;9,58;0,45;0,60;42,41;41,49;-42,34;-22,57;-10,96;-1,65;-0,91;42,41;41,49;-0,87;0,09;-0,86;11,65;650466
IF_TO_R4_8502005_JAM2M_IN_INSF_82, SUBCASE 1, Case 1 Time 1.;120;-31,80;-15,97;-9,60;-1,29;-0,72;0,74;11,68;23,81;19,87;8,03;0,37;0,56;31,86;31,12;-31,80;19,87;-9,60;-1,29;-0,72;31,86;31,12;0,94;1,58;-0,87;11,64;650466
IF_LD_R4_8502001_JAM2M_INSF_-55, SUBCASE 1, Case 1 Time 1.;128;-18,55;-8,92;-8,55;-0,87;-0,55;0,08;6,18;24,28;19,57;7,10;0,47;0,68;24,31;28,89;24,28;19,57;-8,55;-0,87;0,68;24,31;28,89;3,00;3,47;-0,71;11,55;650466
IF_IP2_R4_8502005_JAM2M_OUT_82, SUBCASE 1, Case 1 Time 1.;117;-41,98;-22,48;-10,22;-1,74;-0,84;0,43;13,54;24,19;17,82;8,76;0,42;0,57;42,05;41,04;-41,98;-22,48;-10,22;-1,74;-0,84;42,05;41,04;-0,69;0,25;-0,79;11,53;650466
IF_LD_R4_8502001_DIS3_23, SUBCASE 1, Case 1 Time 1.;70;-33,17;-17,23;-9,48;-1,35;-0,60;0,56;11,39;23,87;18,21;8,07;0,35;0,63;33,22;32,42;-33,17;18,21;-9,48;-1,35;0,63;33,22;32,42;0,69;1,45;-0,79;11,52;650466
IF_LD_R4_8502001_23, SUBCASE 1, Case 1 Time 1.;16;-32,21;-16,70;-9,00;-1,35;-0,57;0,54;10,51;23,79;18,36;7,58;0,33;0,60;32,26;31,45;-32,21;18,36;-9,00;-1,35;0,60;32,26;31,45;0,85;1,57;-0,74;11,35;650466
IF_TO_R4_8502005_JAM2M_OUT_23, SUBCASE 1, Case 1 Time 1.;121;-35,56;-18,85;-9,40;-1,46;-0,61;0,66;11,57;24,01;17,41;8,03;0,35;0,62;35,62;34,76;-35,56;-18,85;-9,40;-1,46;0,62;35,62;34,76;0,24;1,07;-0,72;11,32;650466
IF_TO_R4_8502005_JAM2_82, SUBCASE 1, Case 1 Time 1.;84;-36,55;-19,06;-9,43;-1,54;-0,73;0,39;12,11;23,04;18,29;7,99;0,42;0,54;36,61;35,70;-36,55;-19,06;-9,43;-1,54;-0,73;36,61;35,70;0,05;0,82;-0,79;11,19;650466
IF_LD_R4_8502001_JAM2_23, SUBCASE 1, Case 1 Time 1.;88;-32,09;-16,70;-8,80;-1,35;-0,55;0,56;10,37;23,19;17,71;7,44;0,32;0,59;32,14;31,33;-32,09;17,71;-8,80;-1,35;0,59;32,14;31,33;0,71;1,43;-0,72;11,05;650466
IF_LD_R2_8502001_JAM2_-55, SUBCASE 1, Case 1 Time 1.;86;-24,12;-12,52;-8,23;-0,89;-0,52;0,51;8,01;22,91;16,91;7,04;0,40;0,67;24,14;27,11;-24,12;16,91;-8,23;-0,89;0,67;24,14;27,11;1,77;2,41;-0,62;10,84;650466
IF_TO_R4_8502005_82, SUBCASE 1, Case 1 Time 1.;12;-37,10;-19,50;-9,23;-1,58;-0,72;0,35;11,96;22,47;17,49;7,81;0,42;0,52;37,16;36,22;-37,10;-19,50;-9,23;-1,58;-0,72;37,16;36,22;-0,19;0,60;-0,76;10,84;650466
IF_LD_R2_8502001_JAM2M_INSF_-55, SUBCASE 1, Case 1 Time 1.;125;-16,08;-7,61;-7,97;-0,81;-0,51;0,26;5,22;22,62;18,28;6,58;0,46;0,63;22,65;26,88;22,62;18,28;-7,97;-0,81;0,63;22,65;26,88;2,97;3,38;-0,66;10,75;650466
IF_LD_R2_8502001_23, SUBCASE 1, Case 1 Time 1.;13;-28,65;-14,68;-8,40;-1,19;-0,54;0,55;9,64;22,29;17,59;7,06;0,31;0,57;28,70;27,98;-28,65;17,59;-8,40;-1,19;0,57;28,70;27,98;1,05;1,68;-0,71;10,69;650466
IF_LD_R4_8502001_DIS3_82, SUBCASE 1, Case 1 Time 1.;72;-36,02;-18,76;-9,14;-1,55;-0,69;0,26;11,83;22,02;17,24;7,75;0,45;0,51;36,08;35,16;-36,02;-18,76;-9,14;-1,55;-0,69;36,08;35,16;-0,12;0,64;-0,78;10,69;650466
IF_LD_R4_8502001_82, SUBCASE 1, Case 1 Time 1.;18;-35,16;-18,29;-8,67;-1,56;-0,65;0,29;10,89;22,03;17,46;7,29;0,44;0,49;35,22;34,29;-35,16;-18,29;-8,67;-1,56;-0,65;35,22;34,29;0,05;0,76;-0,74;10,55;650466
IF_TO_R4_8502005_JAM2M_OUT_82, SUBCASE 1, Case 1 Time 1.;123;-38,49;-20,44;-9,13;-1,66;-0,73;0,40;12,04;22,08;16,46;7,76;0,43;0,51;38,56;37,58;-38,49;-20,44;-9,13;-1,66;-0,73;38,56;37,58;-0,58;0,25;-0,71;10,49;650466
IF_LD_R4_8502001_JAM2M_INSF_23, SUBCASE 1, Case 1 Time 1.;127;-22,04;-10,61;-7,91;-0,91;-0,51;0,47;8,01;22,05;18,39;6,43;0,32;0,53;22,08;26,09;22,05;18,39;-7,91;-0,91;0,53;22,08;26,09;1,97;2,41;-0,72;10,44;650466
IF_IP1_R1_8502005_JAM2_-55, SUBCASE 1, Case 1 Time 1.;77;-23,98;-12,74;-8,55;-0,76;-0,56;0,23;8,76;21,50;15,16;7,45;0,38;0,67;24,00;25,75;-23,98;15,16;-8,55;-0,76;0,67;24,00;25,75;1,28;1,98;-0,65;10,30;650466
IF_LD_R4_8502001_JAM2_82, SUBCASE 1, Case 1 Time 1.;90;-35,10;-18,33;-8,51;-1,56;-0,64;0,22;10,80;21,44;16,81;7,16;0,44;0,48;35,16;34,23;-35,10;-18,33;-8,51;-1,56;-0,64;35,16;34,23;-0,10;0,62;-0,71;10,25;650466
IF_IP1_R1_8502005_-55, SUBCASE 1, Case 1 Time 1.;5;-23,81;-12,71;-8,27;-0,77;-0,54;0,18;8,57;20,95;14,52;7,21;0,38;0,65;23,83;24,88;-23,81;14,52;-8,27;-0,77;0,65;23,83;24,88;1,15;1,85;-0,62;9,95;650466
IF_LD_R2_8502001_82, SUBCASE 1, Case 1 Time 1.;15;-31,61;-16,27;-8,04;-1,40;-0,61;0,63;9,97;20,59;16,69;6,73;0,40;0,46;31,67;30,83;-31,61;16,69;-8,04;-1,40;-0,61;31,67;30,83;0,25;0,88;-0,70;9,89;650466
IF_LD_R2_8502001_JAM2_23, SUBCASE 1, Case 1 Time 1.;85;-27,90;-14,46;-7,74;-1,17;-0,49;0,46;9,07;20,45;15,70;6,53;0,29;0,52;27,94;27,24;-27,90;15,70;-7,74;-1,17;0,52;27,94;27,24;0,70;1,33;-0,63;9,75;650466
IF_LD_R4_8502001_JAM2M_INSF_82, SUBCASE 1, Case 1 Time 1.;129;-24,89;-12,13;-7,43;-1,12;-0,53;0,29;8,23;20,44;17,44;6,00;0,35;0,42;24,94;24,26;-24,89;17,44;-7,43;-1,12;-0,53;24,94;24,26;1,17;1,59;-0,71;9,65;650442
IF_LD_R2_8502001_JAM2M_INSF_23, SUBCASE 1, Case 1 Time 1.;124;-19,72;-9,42;-7,32;-0,81;-0,48;0,46;7,25;20,36;17,03;5,91;0,29;0,48;20,39;24,08;20,36;17,03;-7,32;-0,81;0,48;20,39;24,08;1,90;2,28;-0,67;9,63;650466
IF_IP1_R1_8502005_JAM2_23, SUBCASE 1, Case 1 Time 1.;76;-27,55;-14,60;-8,00;-1,02;-0,54;0,57;10,17;18,73;13,81;6,96;0,30;0,52;27,59;27,01;-27,55;-14,60;-8,00;-1,02;-0,54;27,59;27,01;0,20;0,89;-0,65;9,13;650466
IF_LD_R2_8502001_JAM2_82, SUBCASE 1, Case 1 Time 1.;87;-30,89;-16,08;-7,44;-1,38;-0,59;0,25;9,49;18,68;14,79;6,25;0,39;0,41;30,95;30,12;-30,89;-16,08;-7,44;-1,38;-0,59;30,95;30,12;-0,11;0,51;-0,62;8,95;650466
IF_LD_R2_8502001_JAM2M_INSF_82, SUBCASE 1, Case 1 Time 1.;126;-22,64;-10,97;-6,84;-1,01;-0,51;0,23;7,58;18,79;16,09;5,49;0,32;0,37;22,69;22,19;-22,64;16,09;-6,84;-1,01;-0,51;22,69;22,19;1,10;1,47;-0,66;8,88;650442
IF_IP1_R1_8502005_23, SUBCASE 1, Case 1 Time 1.;4;-27,39;-14,57;-7,78;-1,03;-0,52;0,44;9,90;18,26;13,24;6,76;0,29;0,50;27,43;26,85;-27,39;-14,57;-7,78;-1,03;-0,52;27,43;26,85;0,09;0,77;-0,62;8,82;650466
IF_LD_R2_8502001_DIS3_-55, SUBCASE 1, Case 1 Time 1.;68;-17,37;-8,90;-6,62;-0,60;-0,41;0,15;5,70;18,46;13,75;5,68;0,40;0,56;18,67;22,00;18,46;13,75;-6,62;-0,60;0,56;18,67;22,00;1,74;2,24;-0,51;8,80;650466
IF_IP1_R1_8502005_JAM2_82, SUBCASE 1, Case 1 Time 1.;78;-30,35;-16,11;-7,69;-1,22;-0,66;0,12;9,70;16,70;12,79;6,67;0,37;0,41;30,40;29,70;-30,35;-16,11;-7,69;-1,22;-0,66;30,40;29,70;-0,61;0,06;-0,63;8,26;650466
IF_IP1_R1_8502005_JAM2M_OUT_-55, SUBCASE 1, Case 1 Time 1.;110;-23,99;-13,15;-7,16;-0,82;-0,43;0,17;8,35;17,85;10,38;6,36;0,29;0,57;24,01;23,55;-23,99;-13,15;-7,16;-0,82;0,57;24,01;23,55;0,14;0,89;-0,44;8,07;650466
IF_IP1_R1_8502005_82, SUBCASE 1, Case 1 Time 1.;6;-30,21;-16,09;-7,49;-1,23;-0,65;0,25;9,30;16,28;12,27;6,50;0,36;0,40;30,26;29,55;-30,21;-16,09;-7,49;-1,23;-0,65;30,26;29,55;-0,72;-0,05;-0,60;7,99;650466
IF_LD_R2_8502001_DIS3_23, SUBCASE 1, Case 1 Time 1.;67;-20,98;-10,75;-6,09;-0,87;-0,39;0,39;7,06;15,97;12,47;5,13;0,22;0,41;21,01;20,49;-20,98;12,47;-6,09;-0,87;0,41;21,01;20,49;0,68;1,15;-0,51;7,66;650466
IF_LD_R2_8502001_DIS1_INSF_-55, SUBCASE 1, Case 1 Time 1.;50;-14,15;-7,22;-5,63;-0,49;-0,35;0,06;4,39;16,14;11,96;4,85;0,39;0,49;16,31;19,13;16,14;11,96;-5,63;-0,49;0,49;16,31;19,13;1,67;2,09;-0,42;7,65;650466
IF_IP1_R1_8502005_JAM2M_OUT_82, SUBCASE 1, Case 1 Time 1.;111;-30,51;-16,63;-6,64;-1,28;-0,60;0,06;6,27;13,20;8,10;6,03;0,35;0,34;30,56;29,81;-30,51;-16,63;-6,64;-1,28;-0,60;30,56;29,81;-1,76;-1,03;-0,43;7,08;650477
IF_IP1_R1_8502005_DIS3_-55, SUBCASE 1, Case 1 Time 1.;59;-14,51;-7,70;-5,68;-0,46;-0,36;0,01;4,83;14,80;10,16;4,99;0,37;0,49;14,94;17,53;14,80;10,16;-5,68;-0,46;0,49;14,94;17,53;1,16;1,63;-0,41;7,01;650466
IF_IP1_R1_8502005_JAM2M_OUT_23, SUBCASE 1, Case 1 Time 1.;109;-27,64;-15,07;-6,80;-1,08;-0,44;0,22;8,16;15,18;9,09;6,02;0,27;0,42;27,68;27,05;-27,64;-15,07;-6,80;-1,08;-0,44;27,68;27,05;-0,93;-0,20;-0,44;6,93;650466
IF_IP1_R1_8502005_DIS1_-55, SUBCASE 1, Case 1 Time 1.;41;-14,17;-7,50;-5,73;-0,46;-0,37;0,12;4,82;14,44;9,74;5,06;0,35;0,49;14,58;17,21;14,44;9,74;-5,73;-0,46;0,49;14,58;17,21;1,09;1,56;-0,41;6,88;650466
IF_LD_R2_8502001_DIS3_82, SUBCASE 1, Case 1 Time 1.;69;-23,83;-12,28;-5,73;-1,08;-0,49;0,37;7,40;14,16;11,51;4,80;0,33;0,31;23,87;23,23;-23,83;-12,28;-5,73;-1,08;-0,49;23,87;23,23;-0,13;0,33;-0,50;6,83;650466
IF_LD_R2_8502001_DIS1_INSF_23, SUBCASE 1, Case 1 Time 1.;49;-17,51;-8,95;-5,03;-0,74;-0,32;0,33;5,76;13,47;10,55;4,22;0,19;0,34;17,54;17,10;-17,51;10,55;-5,03;-0,74;0,34;17,54;17,10;0,60;0,98;-0,42;6,43;650466
IF_LD_R2_8502001_FS11_-55, SUBCASE 1, Case 1 Time 1.;32;-1,74;-3,85;-4,59;-0,57;-0,38;0,15;0,38;12,72;11,88;3,98;0,56;0,43;12,72;14,93;12,72;11,88;-4,59;-0,57;0,43;12,72;14,93;2,85;3,03;-0,30;5,97;650442
IF_IP1_R1_8502005_DIS3_23, SUBCASE 1, Case 1 Time 1.;58;-18,12;-9,58;-5,18;-0,69;-0,34;0,33;6,55;12,12;8,90;4,50;0,19;0,34;18,15;17,76;-18,12;-9,58;-5,18;-0,69;-0,34;18,15;17,76;0,09;0,54;-0,42;5,89;650466
IF_IP1_R1_8502005_DIS1_23, SUBCASE 1, Case 1 Time 1.;40;-17,77;-9,37;-5,24;-0,64;-0,36;0,27;6,79;11,73;8,45;4,59;0,20;0,34;17,79;17,45;-17,77;-9,37;-5,24;-0,64;-0,36;17,79;17,45;0,02;0,47;-0,42;5,76;650466
IF_LD_R2_8502001_DIS1_INSF_82, SUBCASE 1, Case 1 Time 1.;51;-20,25;-10,42;-4,65;-0,94;-0,43;0,20;5,98;11,62;9,53;4,01;0,29;0,25;20,29;19,73;-20,25;-10,42;-4,65;-0,94;-0,43;20,29;19,73;-0,21;0,17;-0,41;5,56;650466
IF_LD_R4_8502001_DIS1_INSF_-55, SUBCASE 1, Case 1 Time 1.;53;-8,63;-4,42;-3,71;-0,34;-0,21;0,12;2,11;11,75;8,60;3,38;0,36;0,37;11,87;13,58;11,75;8,60;-3,71;0,36;0,37;11,87;13,58;1,45;1,73;-0,25;5,43;650466
IF_LD_R2_8502001_FS11_23, SUBCASE 1, Case 1 Time 1.;31;-5,49;-3,68;-4,27;-0,54;-0,35;0,08;0,64;10,72;9,80;3,04;0,23;0,29;10,72;12,79;10,72;9,80;-4,27;-0,54;-0,35;10,72;12,79;1,76;1,93;-0,30;5,12;650442
IF_IP1_R1_8502005_DIS3_82, SUBCASE 1, Case 1 Time 1.;60;-20,95;-11,10;-4,90;-0,89;-0,48;0,35;5,64;10,14;7,93;4,39;0,28;0,26;20,99;20,47;-20,95;-11,10;-4,90;-0,89;-0,48;20,99;20,47;-0,72;-0,27;-0,40;5,06;650466
IF_IP1_R1_8502005_DIS1_82, SUBCASE 1, Case 1 Time 1.;42;-20,57;-10,87;-4,98;-0,84;-0,50;0,53;5,29;9,74;7,47;4,48;0,27;0,26;20,61;20,15;-20,57;-10,87;-4,98;-0,84;-0,50;20,61;20,15;-0,79;-0,35;-0,40;4,93;650466
IF_LD_R4_8502001_FS11_-55, SUBCASE 1, Case 1 Time 1.;35;-3,54;-2,28;-3,18;-0,37;-0,24;0,05;0,28;10,08;9,05;3,12;0,44;0,34;10,09;11,70;10,08;9,05;-3,18;0,44;0,34;10,09;11,70;1,95;2,14;-0,19;4,68;650466
IF_LD_R2_8502001_FS11_82, SUBCASE 1, Case 1 Time 1.;33;-8,44;-3,54;-4,03;-0,53;-0,33;0,23;2,35;9,31;8,87;2,49;0,18;0,22;9,32;11,22;9,31;8,87;-4,03;-0,53;-0,33;9,32;11,22;0,96;1,11;-0,29;4,49;650442
IF_LD_R4_8502001_DIS1_INSF_23, SUBCASE 1, Case 1 Time 1.;52;-12,24;-6,28;-3,19;-0,56;-0,19;0,23;3,50;9,20;7,16;2,64;0,12;0,22;12,26;11,94;-12,24;7,16;-3,19;-0,56;0,22;12,26;11,94;0,38;0,64;-0,25;4,30;650466
IF_TO_R4_8502005_FS11_-55, SUBCASE 1, Case 1 Time 1.;29;-4,04;-1,93;-2,57;-0,32;-0,18;0,17;0,40;8,58;7,23;2,67;0,38;0,30;8,62;9,94;8,58;7,23;2,67;0,38;0,30;8,62;9,94;1,44;1,65;-0,14;3,98;650466
IF_TO_R4_8502005_DIS1_-55, SUBCASE 1, Case 1 Time 1.;47;-4,86;-2,56;-2,61;-0,30;-0,17;0,10;0,76;8,67;6,62;2,62;0,34;0,29;8,75;9,88;8,67;6,62;2,62;0,34;0,29;8,75;9,88;1,25;1,46;-0,14;3,95;650466
IF_IP2_R4_8502005_FS11_-55, SUBCASE 1, Case 1 Time 1.;26;-4,45;-2,34;-2,63;-0,31;-0,18;0,14;0,55;8,44;6,85;2,65;0,36;0,30;8,55;9,82;8,44;6,85;2,65;0,36;0,30;8,55;9,82;1,31;1,53;-0,14;3,93;650466
IF_IP2_R4_8502005_DIS1_-55, SUBCASE 1, Case 1 Time 1.;44;-4,52;-2,49;-2,60;-0,29;-0,18;0,08;0,72;8,23;6,22;2,57;0,34;0,29;8,31;9,45;8,23;6,22;-2,60;0,34;0,29;8,31;9,45;1,17;1,39;-0,14;3,78;650466
IF_LD_R4_8502001_FS11_23, SUBCASE 1, Case 1 Time 1.;34;-7,30;-3,11;-2,58;-0,40;-0,21;0,13;1,77;8,00;6,93;2,06;0,11;0,20;8,00;9,16;8,00;6,93;-2,58;-0,40;-0,21;8,00;9,16;0,88;1,05;-0,20;3,66;650442
IF_LD_R4_8502001_DIS1_INSF_82, SUBCASE 1, Case 1 Time 1.;54;-15,07;-7,80;-2,87;-0,76;-0,32;0,25;3,31;7,43;6,20;2,92;0,24;0,19;15,10;14,66;-15,07;-7,80;2,92;-0,76;-0,32;15,10;14,66;-0,43;-0,17;-0,24;3,48;650477
IF_CR_R1_8501009_FS11_82, SUBCASE 1, Case 1 Time 1.;21;-14,70;-8,62;-1,83;-0,71;-0,32;0,06;0,45;3,57;1,70;2,91;0,21;0,14;14,72;14,33;-14,70;-8,62;2,91;-0,71;-0,32;14,72;14,33;-1,56;-1,30;-0,05;3,40;650477
IF_CR_R1_8501009_FS11_-55, SUBCASE 1, Case 1 Time 1.;20;-8,11;-5,14;-2,11;-0,24;-0,17;0,07;1,98;8,02;4,31;2,10;0,24;0,24;8,11;8,13;-8,11;-5,14;-2,11;0,24;0,24;8,11;8,13;0,29;0,58;-0,06;3,25;650466
IF_LD_R4_8502001_FS11_82, SUBCASE 1, Case 1 Time 1.;36;-10,25;-4,71;-2,31;-0,61;-0,20;0,19;2,09;6,50;6,00;1,77;0,20;0,19;10,28;9,96;-10,25;6,00;-2,31;-0,61;-0,20;10,28;9,96;0,06;0,23;-0,19;3,01;650442
IF_TO_R4_8502005_FS11_23, SUBCASE 1, Case 1 Time 1.;28;-7,78;-3,86;-2,02;-0,38;-0,14;0,10;1,90;6,29;5,19;1,67;0,07;0,15;7,79;7,63;-7,78;5,19;-2,02;-0,38;0,15;7,79;7,63;0,38;0,56;-0,15;2,90;650466
IF_IP2_R4_8502005_FS11_23, SUBCASE 1, Case 1 Time 1.;25;-8,17;-4,26;-2,11;-0,36;-0,15;0,14;2,19;6,07;4,94;1,73;0,08;0,15;8,18;8,01;-8,17;4,94;-2,11;-0,36;0,15;8,18;8,01;0,24;0,44;-0,15;2,86;650466
IF_TO_R4_8502005_DIS1_23, SUBCASE 1, Case 1 Time 1.;46;-8,46;-4,41;-2,08;-0,38;-0,14;0,17;2,28;6,07;4,70;1,72;0,08;0,15;8,47;8,28;-8,46;4,70;-2,08;-0,38;0,15;8,47;8,28;0,19;0,38;-0,15;2,82;650466
IF_CR_R1_8501009_FS11_23, SUBCASE 1, Case 1 Time 1.;19;-11,80;-7,06;-1,86;-0,51;-0,16;0,12;2,00;5,46;2,59;1,95;0,09;0,10;11,81;11,56;-11,80;-7,06;1,95;-0,51;-0,16;11,81;11,56;-0,75;-0,48;-0,07;2,74;650477
IF_IP2_R4_8502005_DIS1_23, SUBCASE 1, Case 1 Time 1.;43;-8,06;-4,31;-2,06;-0,33;-0,16;0,19;2,39;5,57;4,31;1,72;0,08;0,14;8,07;7,90;-8,06;4,31;-2,06;-0,33;-0,16;8,07;7,90;0,11;0,30;-0,14;2,64;650466
IF_TO_R4_8502005_DIS1_82, SUBCASE 1, Case 1 Time 1.;48;-11,29;-5,93;-1,84;-0,58;-0,28;0,14;1,79;4,33;3,74;2,31;0,17;0,15;11,31;10,98;-11,29;-5,93;2,31;-0,58;-0,28;11,31;10,98;-0,62;-0,44;-0,14;2,61;650477
IF_IP2_R4_8502005_FS11_82, SUBCASE 1, Case 1 Time 1.;27;-11,10;-5,82;-1,83;-0,56;-0,28;0,11;1,87;4,52;4,04;2,27;0,16;0,14;11,12;10,81;-11,10;-5,82;2,27;-0,56;-0,28;11,12;10,81;-0,55;-0,36;-0,14;2,57;650477
IF_IP2_R4_8502005_DIS1_82, SUBCASE 1, Case 1 Time 1.;45;-10,85;-5,80;-1,81;-0,52;-0,30;0,09;1,78;3,80;3,33;2,37;0,14;0,13;10,87;10,57;-10,85;-5,80;2,37;-0,52;-0,30;10,87;10,57;-0,70;-0,51;-0,13;2,51;650477
IF_TO_R4_8502005_FS11_82, SUBCASE 1, Case 1 Time 1.;30;-10,72;-5,44;-1,71;-0,58;-0,24;0,33;1,73;4,77;4,28;2,05;0,18;0,16;10,74;10,43;-10,72;-5,44;2,05;-0,58;-0,24;10,74;10,43;-0,42;-0,25;-0,14;2,48;650477
IF_IP1_R1_8502005_FS11_82, SUBCASE 1, Case 1 Time 1.;24;-8,20;-4,89;-0,94;-0,41;-0,24;0,08;0,31;0,47;0,44;1,90;0,18;0,11;8,22;7,98;-8,20;-4,89;1,90;-0,41;-0,24;8,22;7,98;-1,27;-1,16;-0,01;1,95;650388
IF_IP1_R1_8502005_FS11_-55, SUBCASE 1, Case 1 Time 1.;23;-1,63;-1,38;-1,09;-0,22;-0,14;0,14;0,31;4,74;3,07;1,46;0,28;0,18;4,74;4,71;4,74;3,07;1,46;0,28;0,18;4,74;4,71;0,60;0,73;-0,02;1,88;650466
IF_IP2_JAM2M_IN_-55, SUBCASE 1, Case 1 Time 1.;95;-0,60;-0,42;-0,98;-0,21;-0,19;1,38;1,29;3,83;3,46;1,23;0,35;0,14;3,87;3,90;3,83;3,46;1,23;0,35;-0,19;3,87;3,90;1,22;1,20;-0,06;1,56;650466
IF_IP1_JAM2M_OUT_-55, SUBCASE 1, Case 1 Time 1.;92;-0,40;-0,42;-1,76;-0,28;-0,20;0,86;1,09;2,97;3,31;1,35;0,39;0,32;3,34;3,64;2,97;3,31;-1,76;0,39;0,32;3,34;3,64;0,94;1,04;0,07;1,38;650388
IF_TO_JAM2M_OUT_-55, SUBCASE 1, Case 1 Time 1.;104;-0,44;-0,40;-1,63;-0,27;-0,18;0,87;1,02;3,47;3,44;1,30;0,38;0,28;3,49;3,61;3,47;3,44;-1,63;0,38;0,28;3,49;3,61;0,96;1,04;0,06;1,38;650388
IF_TO_JAM2M_IN_-55, SUBCASE 1, Case 1 Time 1.;101;-0,61;-0,43;-0,86;-0,21;-0,19;1,52;1,48;4,28;3,45;1,09;0,36;0,13;4,31;4,11;4,28;3,45;1,09;0,36;-0,19;4,31;4,11;1,20;1,16;-0,04;1,36;650466
IF_LD_JAM2M_IN_-55, SUBCASE 1, Case 1 Time 1.;107;-0,64;-0,47;-1,14;-0,22;-0,21;0,86;1,01;5,79;3,34;0,59;0,41;0,14;5,82;5,56;5,79;3,34;-1,14;0,41;-0,21;5,82;5,56;1,17;1,06;0,00;1,32;650383
IF_IP2_JAM2M_OUT_-55, SUBCASE 1, Case 1 Time 1.;98;-0,43;-0,38;-1,50;-0,27;-0,17;0,85;1,38;2,91;3,27;1,35;0,37;0,27;3,29;3,31;2,91;3,27;-1,50;0,37;0,27;3,29;3,31;0,96;1,05;0,04;1,28;650388
IF_LD_JAM2M_IN_82, SUBCASE 1, Case 1 Time 1.;108;-2,27;-2,65;-1,51;-0,32;-0,21;0,11;0,42;0,28;0,60;1,01;0,24;0,17;2,66;3,15;-2,27;-2,65;-1,51;-0,32;-0,21;2,66;3,15;-0,70;-0,84;0,00;1,26;650342
IF_IP1_R1_8502005_FS11_23, SUBCASE 1, Case 1 Time 1.;22;-5,29;-3,33;-0,79;-0,21;-0,08;0,10;0,59;2,16;0,69;0,94;0,04;0,04;5,30;5,18;-5,29;-3,33;0,94;-0,21;-0,08;5,30;5,18;-0,47;-0,35;-0,02;1,23;650477
IF_IP1_JAM2M_OUT_82, SUBCASE 1, Case 1 Time 1.;93;-3,61;-2,59;-0,72;-0,33;-0,08;1,09;1,45;0,48;0,31;0,67;0,14;0,16;3,63;3,59;-3,61;-2,59;-0,72;-0,33;0,16;3,63;3,59;-0,93;-0,85;0,08;1,10;650466
IF_IP2_JAM2M_IN_82, SUBCASE 1, Case 1 Time 1.;96;-2,77;-2,46;-0,87;-0,29;-0,25;0,40;0,42;0,30;0,28;1,37;0,20;0,13;2,78;2,86;-2,77;-2,46;1,37;-0,29;-0,25;2,78;2,86;-0,66;-0,71;-0,06;1,07;650388
IF_TO_JAM2M_OUT_82, SUBCASE 1, Case 1 Time 1.;105;-3,29;-2,50;-0,75;-0,29;-0,09;1,18;1,23;0,41;0,29;0,58;0,13;0,14;3,31;3,20;-3,29;-2,50;-0,75;-0,29;0,14;3,31;3,20;-0,91;-0,85;0,06;1,07;650466
IF_IP2_JAM2M_OUT_82, SUBCASE 1, Case 1 Time 1.;99;-3,89;-2,68;-0,70;-0,31;-0,10;0,94;1,25;0,43;0,32;0,70;0,14;0,14;3,91;3,78;-3,89;-2,68;0,70;-0,31;0,14;3,91;3,78;-0,91;-0,85;0,04;1,06;650383
IF_TO_JAM2M_IN_82, SUBCASE 1, Case 1 Time 1.;102;-2,34;-2,47;-1,00;-0,30;-0,23;0,64;0,75;0,29;0,27;1,26;0,20;0,14;2,49;2,70;-2,34;-2,47;1,26;-0,30;-0,23;2,49;2,70;-0,68;-0,75;-0,04;1,02;650388
IF_LD_JAM2M_IN_23, SUBCASE 1, Case 1 Time 1.;106;-0,43;-0,46;-0,69;-0,07;-0,08;0,05;0,21;2,05;0,74;0,53;0,13;0,07;2,05;2,00;2,05;0,74;-0,69;0,13;-0,08;2,05;2,00;0,10;-0,03;0,00;0,49;650341
IF_IP2_JAM2M_IN_23, SUBCASE 1, Case 1 Time 1.;94;-0,28;-0,21;-0,45;-0,03;-0,09;0,01;0,29;0,92;0,63;0,43;0,09;0,04;0,92;1,15;0,92;0,63;-0,45;0,09;-0,09;0,92;1,15;0,14;0,10;-0,06;0,46;650466
IF_IP1_JAM2M_OUT_23, SUBCASE 1, Case 1 Time 1.;91;-0,72;-0,28;-0,54;-0,14;-0,07;0,04;0,11;0,38;0,33;0,63;0,06;0,12;0,77;1,31;-0,72;0,33;0,63;-0,14;0,12;0,77;1,31;-0,12;-0,03;0,06;0,37;650386
IF_TO_JAM2M_OUT_23, SUBCASE 1, Case 1 Time 1.;103;-0,69;-0,35;-0,39;-0,09;-0,05;0,01;0,11;0,30;0,24;0,40;0,05;0,08;0,72;0,77;-0,69;-0,35;0,40;-0,09;0,08;0,72;0,77;-0,11;-0,05;0,05;0,29;650466
IF_TO_JAM2M_IN_23, SUBCASE 1, Case 1 Time 1.;100;-0,27;-0,22;-0,37;-0,04;-0,08;0,08;0,13;0,57;0,34;0,32;0,09;0,04;0,58;0,84;0,57;0,34;-0,37;0,09;-0,08;0,58;0,84;0,12;0,06;-0,05;0,26;650466
IF_IP2_JAM2M_OUT_23, SUBCASE 1, Case 1 Time 1.;97;-0,91;-0,28;-0,28;-0,11;-0,05;0,01;0,06;0,25;0,22;0,38;0,04;0,08;0,92;1,11;-0,91;-0,28;0,38;-0,11;0,08;0,92;1,11;-0,10;-0,04;0,04;0,26;650477
Ref CID;Coord Material;;;;;;;;;;;;;;;;;;;;;;;;;;
