LC_Name;LC_ID;qxMin;qyMin;qxyMin;qxzMin;qyzMin;qshearMin;qvonmisesMin;qxMax;qyMax;qxyMax;qxzMax;qyzMax;qshearMax;qvonmisesMax;qxAbsMax;qyAbsMax;qxyAbsMax;qxzAbsMax;qyzAbsMax;qshearAbsMax;qvonmisesAbsMax;qxAverage;qyAverage;qxyAverage;sigmaVonMisesMax;CriticalElemID
IF_IP2_R4_8502005_JAM2M_IN_-55, SUBCASE 1, Case 1 Time 1.;113;-2,38;-21,97;-81,90;-19,18;-15,12;31,38;38,47;251,74;241,20;85,65;28,07;16,66;252,44;259,99;251,74;241,20;85,65;28,07;16,66;252,44;259,99;92,15;33,23;0,35;28,89;650570
IF_IP2_R4_8502005_JAM2M_IN_23, SUBCASE 1, Case 1 Time 1.;112;-2,74;-22,68;-82,43;-19,40;-14,75;28,63;34,46;238,10;227,96;81,16;27,60;17,73;238,74;245,32;238,10;227,96;-82,43;27,60;17,73;238,74;245,32;87,54;31,01;-0,10;27,26;650570
IF_TO_R4_8502005_JAM2M_IN_INSF_-55, SUBCASE 1, Case 1 Time 1.;119;-2,12;-20,04;-74,18;-17,90;-13,63;27,18;33,83;229,82;220,53;78,64;25,23;15,00;230,46;237,93;229,82;220,53;78,64;25,23;15,00;230,46;237,93;83,82;30,25;0,47;26,44;650570
IF_CR_R1_8501009_JAM2_-55, SUBCASE 1, Case 1 Time 1.;74;-4,08;-20,74;-92,37;-23,10;-15,34;67,72;77,98;239,38;222,11;73,80;38,42;19,66;239,91;236,35;239,38;222,11;-92,37;38,42;19,66;239,91;236,35;100,21;36,17;-1,13;26,26;650551
IF_IP2_R4_8502005_JAM2M_IN_82, SUBCASE 1, Case 1 Time 1.;114;-3,03;-23,23;-82,85;-19,92;-14,44;26,58;31,57;227,78;217,94;77,76;29,50;18,52;228,38;234,24;227,78;217,94;-82,85;29,50;18,52;228,38;234,24;85,66;29,91;-0,40;26,03;650570
IF_CR_R1_8501009_-55, SUBCASE 1, Case 1 Time 1.;2;-4,08;-19,66;-90,52;-22,81;-14,69;66,50;75,87;227,76;210,50;73,02;38,09;19,11;228,26;224,85;227,76;210,50;-90,52;38,09;19,11;228,26;224,85;96,70;34,97;-1,22;24,98;650551
IF_TO_R4_8502005_JAM2M_IN_INSF_23, SUBCASE 1, Case 1 Time 1.;118;-2,49;-20,84;-74,98;-18,03;-13,31;24,26;29,72;217,15;208,27;74,53;24,65;16,12;217,74;224,32;217,15;208,27;-74,98;24,65;16,12;217,74;224,32;80,08;28,34;0,03;24,92;650570
IF_CR_R1_8501009_JAM2_23, SUBCASE 1, Case 1 Time 1.;73;-4,45;-21,37;-92,76;-23,25;-14,94;62,84;72,18;224,86;208,01;73,44;40,85;20,62;225,35;227,62;224,86;208,01;-92,76;40,85;20,62;225,35;227,62;95,67;33,97;-1,55;24,67;650551
IF_LD_R4_8502001_JAM2M_INSF_-55, SUBCASE 1, Case 1 Time 1.;128;-1,76;-18,54;-66,53;-17,16;-12,16;19,42;26,74;210,61;202,98;73,23;22,09;13,40;211,22;219,48;210,61;202,98;73,23;22,09;13,40;211,22;219,48;75,63;27,31;0,77;24,39;650570
IF_TO_R4_8502005_JAM2M_IN_INSF_82, SUBCASE 1, Case 1 Time 1.;120;-2,78;-21,46;-75,58;-18,63;-13,04;22,10;26,76;207,52;198,95;71,41;26,56;16,95;208,07;214,01;207,52;198,95;-75,58;26,56;16,95;208,07;214,01;77,81;27,10;-0,26;23,78;650570
IF_CR_R1_8501009_23, SUBCASE 1, Case 1 Time 1.;1;-4,45;-20,44;-91,16;-23,00;-14,37;61,45;70,12;214,80;197,95;72,78;40,58;20,15;215,25;225,98;214,80;197,95;-91,16;40,58;20,15;215,25;225,98;91,95;35,68;-1,62;23,57;650551
IF_CR_R1_8501009_JAM2_82, SUBCASE 1, Case 1 Time 1.;75;-4,73;-21,86;-93,06;-23,35;-14,61;58,89;67,45;213,82;197,29;73,17;42,67;21,34;214,27;229,26;213,82;197,29;-93,06;42,67;21,34;214,27;229,26;93,12;32,63;-1,88;23,47;650551
IF_LD_R4_8502001_JAM2M_INSF_23, SUBCASE 1, Case 1 Time 1.;127;-2,13;-19,60;-68,03;-17,64;-12,00;15,94;22,39;200,77;193,54;70,20;20,93;14,65;201,34;208,94;200,77;193,54;70,20;20,93;14,65;201,34;208,94;72,85;25,73;0,37;23,22;650570
IF_LD_R2_8502001_JAM2M_INSF_-55, SUBCASE 1, Case 1 Time 1.;125;-1,57;-17,51;-62,36;-16,53;-11,47;16,54;24,45;199,80;192,90;69,84;20,73;12,51;200,38;208,75;199,80;192,90;69,84;20,73;12,51;200,38;208,75;71,22;25,74;0,82;23,19;650570
IF_CR_R1_8501009_82, SUBCASE 1, Case 1 Time 1.;3;-4,73;-21,04;-91,65;-23,13;-14,11;57,67;65,62;204,92;188,39;72,59;42,43;20,92;205,33;227,82;204,92;188,39;-91,65;42,43;20,92;205,33;227,82;90,42;31,68;-1,95;22,49;650551
IF_LD_R4_8502001_JAM2M_INSF_82, SUBCASE 1, Case 1 Time 1.;129;-2,42;-20,23;-68,69;-18,25;-11,73;13,82;19,43;191,29;184,37;67,14;22,86;15,49;191,81;198,77;191,29;184,37;-68,69;22,86;15,49;191,81;198,77;70,42;24,44;0,06;22,09;650570
IF_IP2_R4_8502005_JAM2_-55, SUBCASE 1, Case 1 Time 1.;80;-2,53;-16,67;-68,28;-15,43;-12,15;44,29;46,05;196,25;184,92;63,13;24,87;14,26;196,75;198,01;196,25;184,92;-68,28;24,87;14,26;196,75;198,01;76,52;27,72;-0,27;22,00;650570
IF_LD_R2_8502001_JAM2M_INSF_23, SUBCASE 1, Case 1 Time 1.;124;-1,94;-18,37;-63,37;-16,66;-11,17;13,69;20,38;187,73;181,23;65,95;19,21;13,68;188,26;195,78;187,73;181,23;65,95;19,21;13,68;188,26;195,78;67,81;23,95;0,38;21,75;650570
IF_IP2_R4_8502005_DIS3_-55, SUBCASE 1, Case 1 Time 1.;62;-2,92;-16,46;-70,36;-16,85;-12,09;50,63;55,05;194,89;182,46;61,34;27,40;14,71;195,36;194,91;194,89;182,46;-70,36;27,40;14,71;195,36;194,91;78,64;28,50;-0,53;21,66;650570
IF_TO_R4_8502005_JAM2_-55, SUBCASE 1, Case 1 Time 1.;83;-2,36;-15,61;-63,57;-14,21;-11,26;40,58;42,21;184,05;173,66;59,54;22,72;13,16;184,51;186,11;184,05;173,66;-63,57;22,72;13,16;184,51;186,11;71,56;25,94;-0,13;20,68;650570
IF_LD_R2_8502001_JAM2M_INSF_82, SUBCASE 1, Case 1 Time 1.;126;-2,23;-18,99;-64,01;-17,24;-10,90;11,69;17,49;178,09;171,90;62,82;21,16;14,52;178,59;185,42;178,09;171,90;-64,01;21,16;14,52;178,59;185,42;65,45;22,68;0,08;20,60;650570
IF_IP2_R4_8502005_JAM2_23, SUBCASE 1, Case 1 Time 1.;79;-2,90;-17,40;-68,88;-15,65;-11,81;41,58;42,55;182,83;171,87;58,69;27,44;15,33;183,26;183,56;182,83;171,87;-68,88;27,44;15,33;183,26;183,56;72,47;25,70;-0,70;20,40;650570
IF_IP2_R4_8502005_DIS3_23, SUBCASE 1, Case 1 Time 1.;61;-3,29;-17,26;-71,08;-17,08;-11,78;46,04;51,44;182,10;170,06;57,16;29,95;15,80;182,52;181,20;182,10;170,06;-71,08;29,95;15,80;182,52;181,20;74,49;26,44;-0,95;20,13;650570
IF_TO_R4_8502005_DIS3_-55, SUBCASE 1, Case 1 Time 1.;65;-2,64;-14,91;-63,51;-15,04;-10,95;45,54;48,94;177,94;166,85;56,31;24,24;13,15;178,37;178,39;177,94;166,85;-63,51;24,24;13,15;178,37;178,39;71,37;25,91;-0,38;19,82;650570
IF_LD_R2_8502001_-55, SUBCASE 1, Case 1 Time 1.;14;-2,07;-14,83;-58,82;-13,10;-10,46;33,84;35,78;174,46;165,38;57,38;20,63;12,03;174,92;177,62;174,46;165,38;-58,82;20,63;12,03;174,92;177,62;66,70;24,20;0,11;19,74;650570
IF_IP2_R4_8502005_-55, SUBCASE 1, Case 1 Time 1.;8;-2,55;-14,78;-63,09;-15,03;-11,07;45,57;48,71;176,35;164,88;55,23;24,48;13,31;176,77;176,02;176,35;164,88;-63,09;24,48;13,31;176,77;176,02;70,64;25,64;-0,45;19,56;650570
IF_LD_R4_8502001_-55, SUBCASE 1, Case 1 Time 1.;17;-2,32;-14,61;-59,93;-13,56;-10,47;40,24;41,35;172,49;162,47;55,54;21,64;12,36;172,93;174,04;172,49;162,47;-59,93;21,64;12,36;172,93;174,04;67,63;24,54;-0,10;19,34;650570
IF_IP2_R4_8502005_JAM2_82, SUBCASE 1, Case 1 Time 1.;81;-3,19;-17,97;-69,33;-15,81;-11,51;38,77;40,10;172,60;161,93;55,31;29,37;16,13;173,00;172,60;172,60;161,93;-69,33;29,37;16,13;173,00;172,60;70,14;24,44;-1,02;19,18;650570
IF_TO_R4_8502005_JAM2_23, SUBCASE 1, Case 1 Time 1.;82;-2,73;-16,36;-64,21;-14,45;-10,92;37,88;38,68;170,75;160,74;55,15;25,31;14,25;171,16;171,80;170,75;160,74;-64,21;25,31;14,25;171,16;171,80;67,98;24,08;-0,57;19,09;650570
IF_LD_R4_8502001_DIS3_-55, SUBCASE 1, Case 1 Time 1.;71;-2,43;-14,24;-59,54;-13,69;-10,33;41,76;43,23;170,22;160,23;54,60;21,80;12,18;170,65;171,61;170,22;160,23;-59,54;21,80;12,18;170,65;171,61;67,27;24,43;-0,20;19,07;650570
IF_IP2_R4_8502005_DIS3_82, SUBCASE 1, Case 1 Time 1.;63;-3,58;-17,87;-71,62;-17,23;-11,52;42,68;48,89;172,34;160,61;53,98;31,86;16,61;172,72;170,78;172,34;160,61;-71,62;31,86;16,61;172,72;170,78;72,52;25,31;-1,26;18,98;650570
IF_TO_R4_8502005_-55, SUBCASE 1, Case 1 Time 1.;11;-2,37;-13,96;-59,06;-13,88;-10,32;42,21;44,60;166,71;156,19;52,64;22,40;12,33;167,11;166,93;166,71;156,19;-59,06;22,40;12,33;167,11;166,93;66,45;24,14;-0,30;18,55;650570
IF_TO_R4_8502005_DIS3_23, SUBCASE 1, Case 1 Time 1.;64;-2,97;-15,70;-64,20;-15,25;-10,63;40,94;45,30;165,05;154,37;52,10;26,79;14,24;165,44;164,57;165,05;154,37;-64,20;26,79;14,24;165,44;164,57;67,89;24,08;-0,81;18,29;650570
IF_LD_R2_8502001_23, SUBCASE 1, Case 1 Time 1.;13;-2,45;-15,68;-59,83;-12,94;-10,18;31,12;32,15;162,35;153,63;53,43;22,54;13,19;162,76;164,57;162,35;153,63;-59,83;22,54;13,19;162,76;164,57;63,44;22,46;-0,32;18,29;650570
IF_LD_R4_8502001_JAM2_-55, SUBCASE 1, Case 1 Time 1.;89;-2,29;-13,72;-57,25;-13,21;-9,95;40,25;41,77;163,30;153,39;52,08;21,14;11,82;163,70;164,15;163,30;153,39;-57,25;21,14;11,82;163,70;164,15;64,66;23,49;-0,16;18,24;650570
IF_IP2_R4_8502005_23, SUBCASE 1, Case 1 Time 1.;7;-2,92;-15,60;-63,93;-15,28;-10,78;41,10;45,26;163,83;152,74;51,15;27,08;14,43;164,20;162,59;163,83;152,74;-63,93;27,08;14,43;164,20;162,59;66,90;23,73;-0,88;18,07;650570
IF_TO_R4_8502005_JAM2_82, SUBCASE 1, Case 1 Time 1.;84;-3,02;-16,93;-64,70;-14,61;-10,63;35,27;36,21;160,63;150,91;51,81;27,24;15,05;161,01;160,95;160,63;150,91;-64,70;27,24;15,05;161,01;160,95;65,26;22,69;-0,88;17,88;650570
IF_LD_R4_8502001_23, SUBCASE 1, Case 1 Time 1.;16;-2,70;-15,46;-60,90;-13,84;-10,18;36,74;37,87;160,28;150,61;51,54;24,30;13,51;160,66;160,88;160,28;150,61;-60,90;24,30;13,51;160,66;160,88;64,33;22,78;-0,52;17,88;650570
IF_LD_R2_8502001_FS11_-55, SUBCASE 1, Case 1 Time 1.;32;-0,69;-12,11;-40,54;-12,87;-8,94;1,31;5,38;150,58;146,91;54,12;13,80;7,48;151,05;159,68;150,58;146,91;54,12;13,80;-8,94;151,05;159,68;47,46;17,28;0,79;17,74;650570
IF_CR_R1_8501009_DIS3_-55, SUBCASE 1, Case 1 Time 1.;56;-2,65;-13,26;-61,02;-15,23;-10,28;46,29;53,07;161,07;149,31;48,92;24,96;12,73;161,44;159,02;161,07;149,31;-61,02;24,96;12,73;161,44;159,02;67,03;24,38;-0,69;17,67;650551
IF_LD_R4_8502001_DIS3_23, SUBCASE 1, Case 1 Time 1.;70;-2,71;-15,02;-60,25;-13,91;-10,00;37,19;39,56;157,32;147,72;50,38;24,37;13,27;157,69;157,75;157,32;147,72;-60,25;24,37;13,27;157,69;157,75;63,45;22,49;-0,62;17,53;650570
IF_LD_R2_8502001_82, SUBCASE 1, Case 1 Time 1.;15;-2,75;-16,34;-60,60;-13,44;-9,94;29,11;29,61;153,14;144,69;50,43;24,53;14,05;153,50;154,67;153,14;144,69;-60,60;24,53;14,05;153,50;154,67;61,09;21,19;-0,63;17,19;650570
IF_CR_R1_8501009_DIS1_-55, SUBCASE 1, Case 1 Time 1.;38;-2,63;-12,82;-59,35;-14,88;-10,10;45,19;51,81;156,59;145,26;47,69;24,23;12,33;156,95;154,61;156,59;145,26;-59,35;24,23;12,33;156,95;154,61;65,25;23,76;-0,68;17,18;650570
IF_TO_R4_8502005_DIS3_82, SUBCASE 1, Case 1 Time 1.;66;-3,25;-16,30;-64,73;-15,40;-10,35;37,58;42,73;155,24;144,86;48,90;28,69;15,05;155,58;154,09;155,24;144,86;-64,73;28,69;15,05;155,58;154,09;65,19;22,69;-1,12;17,12;650570
IF_TO_R4_8502005_23, SUBCASE 1, Case 1 Time 1.;10;-2,75;-14,78;-59,91;-14,13;-10,03;37,76;41,12;154,23;144,09;48,57;25,01;13,45;154,59;153,53;154,23;144,09;-59,91;25,01;13,45;154,59;153,53;63,10;22,36;-0,73;17,06;650570
IF_IP2_R4_8502005_JAM2M_OUT_-55, SUBCASE 1, Case 1 Time 1.;116;-2,60;-12,78;-59,12;-14,76;-9,96;44,80;51,34;155,27;143,56;47,59;24,32;12,36;155,62;153,27;155,27;143,56;-59,12;24,32;12,36;155,62;153,27;64,67;23,53;-0,67;17,03;650551
IF_IP2_R4_8502005_82, SUBCASE 1, Case 1 Time 1.;9;-3,21;-16,23;-64,55;-15,45;-10,53;37,81;42,85;154,27;143,48;48,06;29,02;15,26;154,61;152,44;154,27;143,48;-64,55;29,02;15,26;154,61;152,44;64,72;22,52;-1,20;16,94;650551
IF_LD_R4_8502001_82, SUBCASE 1, Case 1 Time 1.;18;-3,00;-16,11;-61,64;-14,04;-9,94;33,52;35,46;150,97;141,58;48,51;26,29;14,37;151,32;150,89;150,97;141,58;-61,64;26,29;14,37;151,32;150,89;61,95;21,51;-0,84;16,77;650570
IF_LD_R4_8502001_JAM2_23, SUBCASE 1, Case 1 Time 1.;88;-2,67;-14,53;-58,15;-13,51;-9,65;35,90;38,52;150,71;141,14;47,91;23,83;12,96;151,06;150,55;150,71;141,14;-58,15;23,83;12,96;151,06;150,55;61,20;21,67;-0,60;16,73;650570
IF_LD_R2_8502001_JAM2_-55, SUBCASE 1, Case 1 Time 1.;86;-2,01;-12,25;-50,99;-11,62;-8,97;35,55;36,50;148,00;139,25;47,43;18,39;10,45;148,37;149,16;148,00;139,25;-50,99;18,39;10,45;148,37;149,16;58,06;21,14;-0,06;16,57;650570
IF_LD_R4_8502001_DIS3_82, SUBCASE 1, Case 1 Time 1.;72;-3,00;-15,63;-60,79;-14,07;-9,73;33,84;36,99;147,50;138,20;47,17;26,28;14,09;147,83;147,24;147,50;138,20;-60,79;26,28;14,09;147,83;147,24;61,11;21,23;-0,94;16,36;650570
IF_CR_R1_8501009_DIS3_23, SUBCASE 1, Case 1 Time 1.;55;-3,00;-14,05;-61,73;-15,43;-9,96;41,64;47,79;148,20;136,84;48,72;27,47;13,80;148,51;151,92;148,20;136,84;-61,73;27,47;13,80;148,51;151,92;62,93;22,34;-1,11;16,26;650551
IF_LD_R2_8502001_FS11_23, SUBCASE 1, Case 1 Time 1.;31;-3,17;-12,88;-41,30;-12,30;-8,73;1,30;5,30;137,69;134,41;49,89;12,06;8,60;138,11;145,78;137,69;134,41;49,89;-12,30;-8,73;138,11;145,78;43,61;15,34;0,35;16,20;650570
IF_TO_R4_8502005_JAM2M_OUT_-55, SUBCASE 1, Case 1 Time 1.;122;-2,42;-12,14;-54,89;-13,64;-9,32;41,55;47,98;147,60;136,84;44,91;22,26;11,45;147,94;145,72;147,60;136,84;-54,89;22,26;11,45;147,94;145,72;61,02;22,22;-0,51;16,19;650551
IF_TO_R4_8502005_82, SUBCASE 1, Case 1 Time 1.;12;-3,04;-15,41;-60,56;-14,31;-9,77;34,48;38,71;144,72;134,87;45,47;26,96;14,29;145,04;143,36;144,72;134,87;-60,56;26,96;14,29;145,04;143,36;60,56;21,03;-1,04;15,93;650570
IF_CR_R1_8501009_DIS1_23, SUBCASE 1, Case 1 Time 1.;37;-2,88;-13,60;-60,03;-15,08;-9,79;40,53;46,52;143,76;132,84;47,47;26,73;13,40;144,07;147,98;143,76;132,84;-60,03;26,73;13,40;144,07;147,98;61,21;21,74;-1,08;15,77;650551
IF_LD_R4_8502001_JAM2_82, SUBCASE 1, Case 1 Time 1.;90;-2,97;-15,15;-58,84;-13,72;-9,39;32,71;36,28;141,13;131,82;44,75;25,84;13,81;141,45;140,25;141,13;131,82;-58,84;25,84;13,81;141,45;140,25;58,84;20,41;-0,92;15,58;650570
IF_IP2_R4_8502005_JAM2M_OUT_23, SUBCASE 1, Case 1 Time 1.;115;-2,97;-13,53;-59,93;-15,01;-9,64;40,13;46,01;142,00;130,65;47,55;26,92;13,44;142,29;148,39;142,00;130,65;-59,93;26,92;13,44;142,29;148,39;61,40;21,78;-1,10;15,58;650551
IF_CR_R1_8501009_DIS3_82, SUBCASE 1, Case 1 Time 1.;57;-3,28;-14,65;-62,25;-15,57;-9,69;37,88;43,32;138,36;127,32;48,56;29,35;14,59;138,64;153,88;138,36;127,32;-62,25;29,35;14,59;138,64;153,88;60,82;21,16;-1,43;15,19;650551
IF_LD_R2_8502001_JAM2_23, SUBCASE 1, Case 1 Time 1.;85;-2,34;-13,06;-51,85;-11,90;-8,67;31,62;33,16;135,33;126,94;43,26;21,02;11,58;135,65;135,49;135,33;126,94;-51,85;21,02;11,58;135,65;135,49;54,83;19,41;-0,50;15,05;650570
IF_LD_R2_8502001_FS11_82, SUBCASE 1, Case 1 Time 1.;33;-5,51;-13,48;-41,88;-12,87;-8,54;1,18;6,44;127,88;124,90;46,68;12,02;9,43;128,26;135,24;127,88;124,90;46,68;-12,87;9,43;128,26;135,24;41,40;14,13;0,04;15,03;650570
IF_TO_R4_8502005_JAM2M_OUT_23, SUBCASE 1, Case 1 Time 1.;121;-2,80;-12,89;-55,71;-13,89;-9,00;37,08;42,83;134,37;123,97;43,91;24,87;12,54;134,66;136,76;134,37;123,97;-55,71;24,87;12,54;134,66;136,76;57,71;20,46;-0,93;14,74;650551
IF_CR_R1_8501009_DIS1_82, SUBCASE 1, Case 1 Time 1.;39;-3,16;-14,21;-60,55;-15,21;-9,53;36,77;42,06;133,98;123,38;47,30;28,60;14,20;134,25;149,89;133,98;123,38;-60,55;28,60;14,20;134,25;149,89;59,04;20,54;-1,41;14,71;650551
IF_IP2_R4_8502005_JAM2M_OUT_82, SUBCASE 1, Case 1 Time 1.;117;-3,27;-14,11;-60,55;-15,18;-9,36;36,41;41,55;131,90;120,84;47,51;28,87;14,24;132,16;150,75;131,90;120,84;-60,55;28,87;14,24;132,16;150,75;58,39;20,29;-1,43;14,48;650551
IF_LD_R2_8502001_DIS3_-55, SUBCASE 1, Case 1 Time 1.;68;-1,66;-10,08;-41,44;-9,62;-7,43;26,44;27,92;125,51;118,81;40,97;15,16;8,27;125,84;127,63;125,51;118,81;-41,44;15,16;8,27;125,84;127,63;48,10;17,62;0,13;14,18;650570
IF_IP1_R1_8502005_JAM2_-55, SUBCASE 1, Case 1 Time 1.;77;-2,00;-9,80;-43,84;-10,64;-7,81;33,95;37,11;125,55;117,39;39,11;16,79;8,96;125,86;125,42;125,55;117,39;-43,84;16,79;8,96;125,86;125,42;50,34;18,46;-0,31;13,94;650570
IF_LD_R2_8502001_JAM2_82, SUBCASE 1, Case 1 Time 1.;87;-2,64;-13,67;-52,51;-12,10;-8,43;28,41;30,89;125,69;117,57;40,08;23,02;12,43;125,98;125,13;125,69;117,57;-52,51;23,02;12,43;125,98;125,13;52,17;18,04;-0,82;13,90;650570
IF_TO_R4_8502005_JAM2M_OUT_82, SUBCASE 1, Case 1 Time 1.;123;-3,09;-13,47;-56,34;-14,06;-8,87;33,48;38,39;124,29;114,17;43,87;26,82;13,34;124,53;139,13;124,29;114,17;-56,34;26,82;13,34;124,53;139,13;54,76;18,98;-1,26;13,64;650551
IF_IP1_R1_8502005_-55, SUBCASE 1, Case 1 Time 1.;5;-1,98;-8,88;-41,52;-10,29;-7,29;33,00;37,53;116,02;107,90;35,46;16,26;8,41;116,29;115,06;116,02;107,90;-41,52;16,26;8,41;116,29;115,06;47,25;17,37;-0,37;12,78;650570
IF_LD_R2_8502001_DIS3_23, SUBCASE 1, Case 1 Time 1.;67;-1,79;-10,87;-42,18;-9,29;-7,10;23,53;24,10;112,67;106,37;36,78;16,33;9,38;112,95;113,83;112,67;106,37;-42,18;16,33;9,38;112,95;113,83;44,86;15,88;-0,30;12,65;650570
IF_LD_R2_8502001_DIS1_INSF_-55, SUBCASE 1, Case 1 Time 1.;50;-1,45;-8,63;-35,60;-8,64;-6,45;22,75;24,13;109,94;104,13;35,93;13,23;7,02;110,23;111,93;109,94;104,13;35,93;13,23;7,02;110,23;111,93;41,85;15,40;0,20;12,44;650570
IF_IP1_R1_8502005_JAM2_23, SUBCASE 1, Case 1 Time 1.;76;-2,04;-10,48;-44,22;-10,80;-7,44;29,30;33,52;111,65;103,91;34,53;19,23;9,99;111,91;110,53;111,65;103,91;-44,22;19,23;9,99;111,91;110,53;47,09;16,72;-0,75;12,28;650570
IF_LD_R2_8502001_DIS3_82, SUBCASE 1, Case 1 Time 1.;69;-2,07;-11,48;-42,74;-9,44;-7,12;21,00;21,50;102,88;96,89;33,59;18,25;10,20;103,12;103,37;102,88;96,89;-42,74;18,25;10,20;103,12;103,37;41,97;14,43;-0,61;11,49;650570
IF_IP1_R1_8502005_23, SUBCASE 1, Case 1 Time 1.;4;-2,02;-9,67;-42,26;-10,49;-6,98;28,47;33,08;103,19;95,49;32,95;18,80;9,50;103,41;103,43;103,19;95,49;-42,26;18,80;9,50;103,41;103,43;44,33;15,75;-0,81;11,32;650551
IF_IP1_R1_8502005_JAM2_82, SUBCASE 1, Case 1 Time 1.;78;-2,33;-11,01;-44,51;-10,91;-7,25;25,88;30,33;101,06;93,64;33,63;21,08;10,76;101,28;107,70;101,06;93,64;-44,51;21,08;10,76;101,28;107,70;43,57;15,04;-1,06;11,10;650551
IF_LD_R4_8502001_FS11_-55, SUBCASE 1, Case 1 Time 1.;35;-0,74;-6,99;-25,87;-8,06;-5,51;5,28;8,74;94,15;90,66;32,42;9,64;4,90;94,43;98,16;94,15;90,66;32,42;9,64;-5,51;94,43;98,16;31,44;11,65;0,48;10,91;650570
IF_LD_R2_8502001_DIS1_INSF_23, SUBCASE 1, Case 1 Time 1.;49;-1,51;-9,31;-35,88;-7,85;-6,05;19,54;19,99;95,90;90,57;31,36;13,84;8,03;96,14;96,94;95,90;90,57;-35,88;13,84;8,03;96,14;96,94;37,54;13,28;-0,23;10,77;650570
IF_IP1_R1_8502005_82, SUBCASE 1, Case 1 Time 1.;6;-2,30;-10,28;-42,81;-10,63;-7,00;24,93;28,64;93,39;86,00;32,81;20,69;10,31;93,57;105,47;93,39;86,00;-42,81;20,69;10,31;93,57;105,47;41,06;14,16;-1,11;10,25;650551
IF_LD_R2_8502001_DIS1_INSF_82, SUBCASE 1, Case 1 Time 1.;51;-1,79;-9,87;-36,26;-8,11;-6,37;16,91;17,29;85,62;80,64;28,03;15,69;8,82;85,82;85,98;85,62;80,64;-36,26;15,69;8,82;85,82;85,98;35,06;11,97;-0,54;9,55;650570
IF_LD_R4_8502001_FS11_23, SUBCASE 1, Case 1 Time 1.;34;-0,79;-7,76;-26,63;-7,10;-5,18;2,80;6,46;81,22;78,12;28,18;8,20;5,82;81,44;84,20;81,22;78,12;28,18;8,20;5,82;81,44;84,20;28,14;9,90;0,05;9,36;650570
IF_IP1_R1_8502005_DIS3_-55, SUBCASE 1, Case 1 Time 1.;59;-1,48;-5,84;-27,65;-6,79;-5,11;23,46;25,72;83,76;78,22;25,86;11,37;5,35;83,97;83,63;83,76;78,22;-27,65;11,37;5,35;83,97;83,63;33,19;12,37;-0,10;9,29;650570
IF_IP1_R1_8502005_DIS1_-55, SUBCASE 1, Case 1 Time 1.;41;-1,47;-5,68;-26,98;-6,64;-5,04;23,02;25,22;82,21;76,86;25,45;11,21;5,19;82,41;82,22;82,21;76,86;-26,98;11,21;5,19;82,41;82,22;32,54;12,14;-0,09;9,14;650570
IF_LD_R4_8502001_DIS1_INSF_-55, SUBCASE 1, Case 1 Time 1.;53;-1,08;-5,39;-23,32;-6,20;-4,36;17,23;18,02;75,54;71,24;24,28;9,29;4,45;75,74;76,56;75,54;71,24;24,28;9,29;4,45;75,74;76,56;28,67;10,71;0,24;8,51;650570
IF_LD_R4_8502001_FS11_82, SUBCASE 1, Case 1 Time 1.;36;-1,08;-8,36;-27,21;-7,65;-5,42;1,54;4,73;71,37;68,57;24,95;10,16;6,68;71,56;73,64;71,37;68,57;-27,21;10,16;6,68;71,56;73,64;25,37;8,49;-0,27;8,18;650570
IF_IP1_R1_8502005_DIS3_23, SUBCASE 1, Case 1 Time 1.;58;-1,34;-6,64;-28,42;-7,00;-4,80;18,96;22,07;70,99;65,86;21,88;12,61;6,45;71,15;70,11;70,99;65,86;-28,42;12,61;6,45;71,15;70,11;30,10;10,69;-0,54;7,79;650551
IF_IP1_R1_8502005_DIS1_23, SUBCASE 1, Case 1 Time 1.;40;-1,29;-6,47;-27,70;-6,84;-4,73;18,49;21,51;69,38;64,46;21,35;12,27;6,29;69,54;68,52;69,38;64,46;-27,70;12,27;6,29;69,54;68,52;29,40;10,44;-0,52;7,61;650551
IF_IP1_R1_8502005_JAM2M_OUT_82, SUBCASE 1, Case 1 Time 1.;111;-5,62;-10,18;-32,02;-8,76;-5,17;1,53;4,94;73,39;53,39;27,27;18,05;6,96;73,59;90,72;73,39;53,39;-32,02;18,05;6,96;73,59;90,72;22,86;7,71;-1,56;7,56;650983
IF_IP1_R1_8502005_JAM2M_OUT_23, SUBCASE 1, Case 1 Time 1.;109;-2,54;-7,31;-31,55;-8,63;-4,05;1,40;3,66;71,94;53,76;27,44;16,16;6,18;72,13;88,72;71,94;53,76;-31,55;16,16;6,18;72,13;88,72;25,26;8,99;-1,22;7,39;650983
IF_IP1_R1_8502005_JAM2M_OUT_-55, SUBCASE 1, Case 1 Time 1.;110;-1,97;-3,80;-30,92;-8,43;-4,37;10,18;10,27;70,01;54,28;27,66;13,63;5,14;70,19;86,20;70,01;54,28;-30,92;13,63;5,14;70,19;86,20;29,39;11,04;-0,80;7,18;650983
IF_TO_R4_8502005_FS11_-55, SUBCASE 1, Case 1 Time 1.;29;-0,69;-4,07;-17,25;-5,38;-3,68;9,76;11,00;62,73;59,45;20,42;7,31;3,67;62,90;64,05;62,73;59,45;20,42;7,31;-3,68;62,90;64,05;22,09;8,36;0,31;7,12;650570
IF_LD_R4_8502001_DIS1_INSF_23, SUBCASE 1, Case 1 Time 1.;52;-1,08;-6,18;-24,05;-5,39;-4,04;14,03;14,22;62,72;58,83;20,11;9,69;5,51;62,87;62,78;62,72;58,83;-24,05;9,69;5,51;62,87;62,78;25,28;8,93;-0,19;6,98;650570
IF_IP1_R1_8502005_DIS3_82, SUBCASE 1, Case 1 Time 1.;60;-1,63;-7,25;-29,00;-7,14;-5,35;15,58;18,06;61,24;56,43;21,75;14,51;7,27;61,36;71,06;61,24;56,43;-29,00;14,51;7,27;61,36;71,06;27,05;9,18;-0,84;6,73;650551
IF_IP1_R1_8502005_DIS1_82, SUBCASE 1, Case 1 Time 1.;42;-1,57;-7,08;-28,26;-6,98;-5,19;15,13;17,56;59,60;55,00;21,20;14,16;7,10;59,71;69,28;59,60;55,00;-28,26;14,16;7,10;59,71;69,28;26,35;8,93;-0,82;6,55;650551
IF_IP2_R4_8502005_FS11_-55, SUBCASE 1, Case 1 Time 1.;26;-0,64;-3,47;-15,57;-4,76;-3,39;10,74;11,60;56,64;53,30;17,93;6,99;3,46;56,79;57,25;56,64;53,30;17,93;6,99;3,46;56,79;57,25;20,22;7,71;0,23;6,36;650570
IF_TO_R4_8502005_DIS1_-55, SUBCASE 1, Case 1 Time 1.;47;-0,77;-3,15;-14,81;-4,54;-3,03;12,74;13,35;52,47;49,23;16,46;6,71;3,31;52,61;52,88;52,47;49,23;16,46;6,71;3,31;52,61;52,88;19,53;7,47;0,25;5,88;650570
IF_LD_R4_8502001_DIS1_INSF_82, SUBCASE 1, Case 1 Time 1.;54;-1,36;-6,79;-24,62;-5,57;-5,05;10,70;11,88;52,97;49,40;16,94;11,61;6,34;53,08;54,68;52,97;49,40;-24,62;11,61;6,34;53,08;54,68;22,53;7,52;-0,50;5,82;650570
IF_TO_R4_8502005_FS11_23, SUBCASE 1, Case 1 Time 1.;28;-0,69;-4,90;-18,16;-4,24;-3,40;6,98;7,19;50,37;47,48;16,39;6,87;4,23;50,50;50,74;50,37;47,48;-18,16;6,87;4,23;50,50;50,74;18,71;6,59;-0,13;5,64;650570
IF_IP2_R4_8502005_DIS1_-55, SUBCASE 1, Case 1 Time 1.;44;-0,68;-2,75;-13,42;-4,19;-2,90;11,90;12,52;48,90;45,74;15,12;6,42;3,15;49,02;49,06;48,90;45,74;15,12;6,42;3,15;49,02;49,06;17,99;6,93;0,21;5,45;650570
IF_IP2_R4_8502005_FS11_23, SUBCASE 1, Case 1 Time 1.;25;-0,65;-4,32;-16,55;-3,66;-3,13;7,91;7,97;44,52;41,57;14,00;6,73;3,99;44,63;44,22;44,52;41,57;-16,55;6,73;3,99;44,63;44,22;16,69;5,88;-0,20;4,91;650570
IF_TO_R4_8502005_FS11_82, SUBCASE 1, Case 1 Time 1.;30;-0,98;-5,54;-18,87;-4,83;-4,47;4,87;5,33;40,96;38,37;13,33;8,85;5,24;41,05;40,71;40,96;38,37;-18,87;8,85;5,24;41,05;40,71;16,30;5,30;-0,45;4,52;650570
IF_TO_R4_8502005_DIS1_23, SUBCASE 1, Case 1 Time 1.;46;-0,70;-3,94;-15,56;-3,58;-2,72;9,25;9,64;39,74;36,92;12,33;6,62;3,73;39,83;39,25;39,74;36,92;-15,56;6,62;3,73;39,83;39,25;15,98;5,63;-0,18;4,36;650551
IF_IP2_R4_8502005_FS11_82, SUBCASE 1, Case 1 Time 1.;27;-1,15;-4,98;-17,30;-4,26;-4,34;5,42;6,29;35,29;32,63;11,18;8,72;5,07;35,36;38,06;35,29;32,63;-17,30;8,72;5,07;35,36;38,06;14,56;4,69;-0,52;4,02;650735
IF_IP2_R4_8502005_DIS1_23, SUBCASE 1, Case 1 Time 1.;43;-0,60;-3,52;-14,07;-3,28;-2,58;8,55;8,81;35,91;33,19;10,91;6,17;3,46;35,99;35,47;35,91;33,19;-14,07;6,17;3,46;35,99;35,47;14,56;5,13;-0,23;3,94;650551
IF_TO_R4_8502005_DIS1_82, SUBCASE 1, Case 1 Time 1.;48;-1,21;-4,56;-16,14;-3,76;-4,08;5,94;7,13;30,51;27,55;11,33;8,54;4,71;30,76;37,83;30,51;27,55;-16,14;8,54;4,71;30,76;37,83;13,44;4,30;-0,50;3,74;650735
IF_CR_R1_8501009_FS11_82, SUBCASE 1, Case 1 Time 1.;21;-24,27;-19,30;-10,58;-3,87;-3,17;0,49;2,25;29,02;22,97;10,63;7,63;3,96;29,04;35,22;29,02;22,97;10,63;7,63;3,96;29,04;35,22;0,21;-0,37;-0,89;3,46;650724
IF_IP2_R4_8502005_DIS1_82, SUBCASE 1, Case 1 Time 1.;45;-1,55;-4,55;-14,58;-3,46;-3,94;4,45;4,86;28,01;23,64;10,36;8,05;4,64;28,13;35,15;28,01;23,64;-14,58;8,05;4,64;28,13;35,15;11,72;3,70;-0,54;3,35;650735
IF_CR_R1_8501009_FS11_23, SUBCASE 1, Case 1 Time 1.;19;-17,70;-13,78;-8,84;-2,98;-1,76;0,68;1,79;26,22;23,31;10,68;5,66;2,11;26,32;32,80;26,22;23,31;10,68;5,66;2,11;26,32;32,80;3,41;1,19;-0,58;3,00;650724
IF_IP1_R1_8502005_FS11_82, SUBCASE 1, Case 1 Time 1.;24;-21,05;-22,13;-9,14;-2,11;-2,42;0,37;2,96;14,21;10,39;6,10;5,47;2,79;22,61;25,30;-21,05;-22,13;-9,14;5,47;2,79;22,61;25,30;-3,90;-1,81;-0,61;2,81;650570
IF_CR_R1_8501009_FS11_-55, SUBCASE 1, Case 1 Time 1.;20;-10,39;-6,53;-7,85;-2,63;-1,15;1,37;3,38;23,85;24,02;10,73;3,58;2,11;24,02;30,05;23,85;24,02;10,73;3,58;2,11;24,02;30,05;5,84;2,64;-0,14;2,70;650587
IF_IP2_JAM2M_IN_-55, SUBCASE 1, Case 1 Time 1.;95;-3,44;-2,16;-4,90;-4,79;-2,77;0,73;3,37;18,16;18,21;6,84;2,18;2,69;18,53;20,68;18,16;18,21;6,84;-4,79;-2,77;18,53;20,68;6,18;2,78;0,63;2,30;650570
IF_TO_JAM2M_IN_-55, SUBCASE 1, Case 1 Time 1.;101;-4,47;-2,45;-5,13;-4,67;-2,82;0,45;3,81;14,80;14,95;5,79;2,04;2,64;15,23;17,23;14,80;14,95;5,79;-4,67;-2,82;15,23;17,23;4,97;2,35;0,64;1,91;650570
IF_LD_JAM2M_IN_82, SUBCASE 1, Case 1 Time 1.;108;-16,73;-15,40;-4,63;-2,32;-1,67;0,55;2,35;0,54;1,98;2,46;2,32;2,27;16,77;16,54;-16,73;-15,40;-4,63;-2,32;2,27;16,77;16,54;-4,06;-1,88;-0,01;1,84;650570
IF_IP1_R1_8502005_FS11_23, SUBCASE 1, Case 1 Time 1.;22;-13,65;-13,21;-6,16;-1,21;-1,05;0,62;1,62;11,33;10,86;4,28;2,64;0,92;13,65;15,38;-13,65;-13,21;-6,16;2,64;-1,05;13,65;15,38;-1,45;-0,51;-0,30;1,71;650573
IF_IP1_JAM2M_OUT_82, SUBCASE 1, Case 1 Time 1.;93;-11,86;-9,69;-4,66;-1,80;-2,22;0,33;3,59;4,03;2,56;4,68;3,70;2,21;12,01;13,39;-11,86;-9,69;4,68;3,70;-2,22;12,01;13,39;-3,70;-1,77;-0,60;1,49;650713
IF_IP1_R1_8502005_FS11_-55, SUBCASE 1, Case 1 Time 1.;23;-11,24;-4,07;-2,37;-2,49;-2,40;0,38;1,48;12,03;12,64;4,31;2,12;2,23;12,64;12,82;12,03;12,64;4,31;-2,49;-2,40;12,64;12,82;1,79;1,22;0,14;1,42;650583
IF_IP2_JAM2M_OUT_-55, SUBCASE 1, Case 1 Time 1.;98;-2,87;-1,97;-3,50;-3,26;-2,96;0,43;2,41;12,71;11,68;3,58;1,86;2,38;12,75;12,79;12,71;11,68;3,58;-3,26;-2,96;12,75;12,79;2,76;1,54;0,23;1,42;650570
IF_IP1_JAM2M_OUT_-55, SUBCASE 1, Case 1 Time 1.;92;-4,51;-2,14;-3,15;-3,06;-2,96;0,30;1,72;12,48;11,21;3,27;1,90;2,35;12,52;12,36;12,48;11,21;3,27;-3,06;-2,96;12,52;12,36;2,16;1,32;0,15;1,37;650551
IF_TO_JAM2M_OUT_82, SUBCASE 1, Case 1 Time 1.;105;-10,58;-10,23;-4,31;-1,60;-2,06;0,55;3,20;3,18;2,08;4,06;3,49;2,05;10,70;12,00;-10,58;-10,23;-4,31;3,49;-2,06;10,70;12,00;-3,72;-1,77;-0,54;1,33;650570
IF_LD_JAM2M_IN_-55, SUBCASE 1, Case 1 Time 1.;107;-7,65;-4,71;-5,86;-4,49;-2,95;0,49;3,54;9,30;6,42;3,91;2,03;2,71;9,43;11,79;9,30;6,42;-5,86;-4,49;-2,95;9,43;11,79;1,53;1,12;0,75;1,31;650722
IF_TO_JAM2M_OUT_-55, SUBCASE 1, Case 1 Time 1.;104;-4,57;-2,13;-3,87;-3,30;-3,11;0,42;2,37;11,22;10,31;3,18;1,97;2,49;11,25;11,36;11,22;10,31;-3,87;-3,30;-3,11;11,25;11,36;1,92;1,24;0,23;1,26;650570
IF_IP2_JAM2M_OUT_82, SUBCASE 1, Case 1 Time 1.;99;-9,84;-8,80;-4,06;-1,55;-2,04;0,37;3,15;4,75;2,61;4,45;3,52;2,19;9,94;11,05;-9,84;-8,80;4,45;3,52;2,19;9,94;11,05;-2,84;-1,46;-0,53;1,23;650713
IF_IP2_JAM2M_IN_82, SUBCASE 1, Case 1 Time 1.;96;-4,80;-2,76;-3,10;-1,72;-2,02;0,22;1,47;7,10;1,80;2,95;2,19;2,44;7,25;9,12;7,10;-2,76;-3,10;2,19;2,44;7,25;9,12;0,37;-0,29;-0,13;1,01;650731
IF_IP2_JAM2M_IN_23, SUBCASE 1, Case 1 Time 1.;94;-0,10;-1,03;-2,38;-1,09;-0,51;0,56;0,97;7,44;6,30;2,85;0,73;0,75;7,51;8,28;7,44;6,30;2,85;-1,09;0,75;7,51;8,28;2,76;0,98;0,19;0,92;650713
IF_LD_JAM2M_IN_23, SUBCASE 1, Case 1 Time 1.;106;-7,64;-6,63;-1,83;-1,33;-0,59;0,24;1,38;1,80;2,69;2,49;1,14;1,13;7,66;7,59;-7,64;-6,63;2,49;-1,33;1,13;7,66;7,59;-1,70;-0,61;0,30;0,84;650551
IF_TO_JAM2M_IN_82, SUBCASE 1, Case 1 Time 1.;102;-6,75;-5,89;-2,02;-1,61;-1,92;0,06;1,48;4,99;1,61;2,74;2,20;2,37;6,77;7,31;-6,75;-5,89;2,74;2,20;2,37;6,77;7,31;-0,80;-0,71;-0,12;0,81;650731
IF_IP1_JAM2M_OUT_23, SUBCASE 1, Case 1 Time 1.;91;-6,00;-2,81;-2,29;-0,98;-0,78;0,09;0,47;1,35;1,06;1,57;0,91;0,59;6,09;6,88;-6,00;-2,81;-2,29;-0,98;-0,78;6,09;6,88;-0,39;-0,17;-0,29;0,76;650713
IF_TO_JAM2M_IN_23, SUBCASE 1, Case 1 Time 1.;100;-0,59;-0,87;-1,28;-0,85;-0,46;0,06;0,58;5,74;3,26;1,85;0,63;0,58;5,81;6,46;5,74;3,26;1,85;-0,85;0,58;5,81;6,46;1,60;0,57;0,20;0,72;650713
IF_TO_JAM2M_OUT_23, SUBCASE 1, Case 1 Time 1.;103;-4,77;-2,17;-1,71;-0,76;-0,57;0,04;0,42;0,57;0,78;1,18;0,72;0,44;4,84;5,44;-4,77;-2,17;-1,71;-0,76;-0,57;4,84;5,44;-1,30;-0,48;-0,21;0,60;650713
IF_IP2_JAM2M_OUT_23, SUBCASE 1, Case 1 Time 1.;97;-3,98;-1,96;-1,67;-0,65;-0,51;0,07;0,26;1,67;1,03;1,10;0,66;0,40;4,04;4,57;-3,98;-1,96;-1,67;0,66;-0,51;4,04;4,57;-0,43;-0,17;-0,21;0,51;650713
Ref CID;Coord Material;;;;;;;;;;;;;;;;;;;;;;;;;;
