LC_Name;LC_ID;qxMin;qyMin;qxyMin;qxzMin;qyzMin;qshearMin;qvonmisesMin;qxMax;qyMax;qxyMax;qxzMax;qyzMax;qshearMax;qvonmisesMax;qxAbsMax;qyAbsMax;qxyAbsMax;qxzAbsMax;qyzAbsMax;qshearAbsMax;qvonmisesAbsMax;qxAverage;qyAverage;qxyAverage;sigmaVonMisesMax;CriticalElemID
IF_CR_R1_8501009_JAM2_82, SUBCASE 1, Case 1 Time 1.;75;-41,07;-52,48;-7,02;-0,85;-1,89;0,74;7,94;25,74;38,07;6,58;1,26;0,94;52,50;53,18;-41,07;-52,48;-7,02;1,26;-1,89;52,50;53,18;-2,78;-3,05;-0,23;21,27;652758
IF_CR_R1_8501009_82, SUBCASE 1, Case 1 Time 1.;3;-40,84;-52,13;-6,92;-0,85;-1,89;0,90;8,12;25,98;37,92;6,50;1,26;0,93;52,14;52,83;-40,84;-52,13;-6,92;1,26;-1,89;52,14;52,83;-2,69;-2,97;-0,23;21,13;652758
IF_CR_R1_8501009_JAM2_-55, SUBCASE 1, Case 1 Time 1.;74;-31,30;-40,95;-7,67;-1,20;-1,98;1,54;10,20;35,58;48,94;7,36;0,92;0,74;48,94;49,27;35,58;48,94;-7,67;-1,20;-1,98;48,94;49,27;-0,09;0,09;-0,23;19,71;652757
IF_CR_R1_8501009_-55, SUBCASE 1, Case 1 Time 1.;2;-30,98;-40,50;-7,54;-1,19;-1,96;1,73;10,14;35,85;48,70;7,23;0,92;0,73;48,71;49,14;35,85;48,70;-7,54;-1,19;-1,96;48,71;49,14;0,03;0,19;-0,22;19,66;652757
IF_CR_R1_8501009_JAM2_23, SUBCASE 1, Case 1 Time 1.;73;-36,75;-47,31;-7,26;-0,99;-1,55;0,03;8,88;29,99;42,82;6,88;1,11;0,84;47,33;47,94;-36,75;-47,31;-7,26;1,11;-1,55;47,33;47,94;-1,61;-1,68;-0,22;19,18;652758
IF_CR_R1_8501009_23, SUBCASE 1, Case 1 Time 1.;1;-36,48;-46,91;-7,14;-0,99;-1,54;0,12;9,02;30,24;42,63;6,77;1,11;0,84;46,93;47,54;-36,48;-46,91;-7,14;1,11;-1,54;46,93;47,54;-1,52;-1,57;-0,20;19,02;652758
IF_IP2_R4_8502005_DIS3_82, SUBCASE 1, Case 1 Time 1.;63;-31,21;-39,71;-6,01;-0,54;-1,44;0,35;4,54;16,24;25,75;4,48;0,92;0,71;39,72;40,26;-31,21;-39,71;-6,01;0,92;-1,44;39,72;40,26;-2,65;-2,86;-0,18;16,10;652758
IF_IP2_R4_8502005_JAM2M_IN_82, SUBCASE 1, Case 1 Time 1.;114;-29,90;-37,47;-6,06;-0,56;-1,25;0,36;3,11;11,95;22,49;3,66;0,80;0,69;37,48;38,02;-29,90;-37,47;-6,06;0,80;-1,25;37,48;38,02;-3,09;-3,32;-0,16;15,21;652758
IF_IP2_R4_8502005_JAM2_82, SUBCASE 1, Case 1 Time 1.;81;-29,83;-37,33;-5,92;-0,55;-1,32;0,52;4,09;14,64;23,26;3,64;0,87;0,68;37,34;37,88;-29,83;-37,33;-5,92;0,87;-1,32;37,34;37,88;-2,62;-2,88;-0,15;15,15;652758
IF_CR_R1_8501009_DIS3_82, SUBCASE 1, Case 1 Time 1.;57;-29,28;-37,10;-5,68;-0,51;-1,41;0,15;4,91;15,52;23,27;4,22;0,90;0,67;37,12;37,61;-29,28;-37,10;-5,68;0,90;-1,41;37,12;37,61;-2,41;-2,66;-0,17;15,05;652758
IF_IP2_R4_8502005_82, SUBCASE 1, Case 1 Time 1.;9;-29,52;-36,89;-5,82;-0,55;-1,33;0,22;4,44;15,21;23,16;3,61;0,89;0,67;36,91;37,44;-29,52;-36,89;-5,82;0,89;-1,33;36,91;37,44;-2,47;-2,73;-0,15;14,98;652758
IF_IP2_R4_8502005_JAM2M_OUT_82, SUBCASE 1, Case 1 Time 1.;117;-29,35;-36,75;-5,72;-0,53;-1,36;0,03;4,79;15,84;23,14;3,77;0,91;0,67;36,77;37,29;-29,35;-36,75;-5,72;0,91;-1,36;36,77;37,29;-2,37;-2,63;-0,15;14,92;652758
IF_CR_R1_8501009_DIS1_82, SUBCASE 1, Case 1 Time 1.;39;-28,29;-36,30;-5,46;-0,40;-1,43;0,54;3,77;13,19;21,31;4,81;0,85;0,67;36,31;36,77;-28,29;-36,30;-5,46;0,85;-1,43;36,31;36,77;-2,74;-2,97;-0,19;14,71;652758
IF_IP2_R4_8502005_DIS3_-55, SUBCASE 1, Case 1 Time 1.;62;-21,13;-27,85;-6,69;-0,90;-1,55;1,30;7,03;26,05;36,54;5,26;0,57;0,50;36,54;36,73;26,05;36,54;-6,69;-0,90;-1,55;36,54;36,73;0,12;0,34;-0,15;14,69;652757
IF_TO_R4_8502005_DIS3_82, SUBCASE 1, Case 1 Time 1.;66;-28,38;-36,04;-5,96;-0,47;-1,32;0,49;3,73;13,95;22,31;3,67;0,83;0,64;36,05;36,56;-28,38;-36,04;-5,96;0,83;-1,32;36,05;36,56;-2,51;-2,72;-0,16;14,62;652758
IF_TO_R4_8502005_JAM2_82, SUBCASE 1, Case 1 Time 1.;84;-27,74;-34,69;-6,05;-0,51;-1,23;0,47;3,54;13,26;21,10;3,35;0,80;0,63;34,70;35,24;-27,74;-34,69;-6,05;0,80;-1,23;34,70;35,24;-2,44;-2,69;-0,14;14,10;652758
IF_IP2_R4_8502005_DIS3_23, SUBCASE 1, Case 1 Time 1.;61;-26,79;-34,45;-5,01;-0,69;-1,09;0,39;5,29;20,48;30,46;4,74;0,77;0,62;34,46;34,91;-26,79;-34,45;-5,01;0,77;-1,09;34,46;34,91;-1,45;-1,47;-0,16;13,96;652758
IF_TO_R4_8502005_82, SUBCASE 1, Case 1 Time 1.;12;-27,48;-34,33;-5,93;-0,51;-1,24;0,23;3,85;13,75;21,03;3,30;0,82;0,62;34,35;34,88;-27,48;-34,33;-5,93;0,82;-1,24;34,35;34,88;-2,32;-2,57;-0,14;13,95;652758
IF_TO_R4_8502005_JAM2M_OUT_82, SUBCASE 1, Case 1 Time 1.;123;-27,38;-34,29;-5,85;-0,49;-1,27;0,08;4,13;14,31;20,99;3,25;0,84;0,62;34,30;34,83;-27,38;-34,29;-5,85;0,84;-1,27;34,30;34,83;-2,24;-2,49;-0,14;13,93;652758
IF_CR_R1_8501009_DIS3_-55, SUBCASE 1, Case 1 Time 1.;56;-19,24;-25,40;-5,94;-0,84;-1,45;0,93;7,17;25,35;34,12;4,95;0,55;0,46;34,12;34,49;25,35;34,12;-5,94;-0,84;-1,45;34,12;34,49;0,36;0,54;-0,14;13,80;652757
IF_TO_R4_8502005_JAM2M_IN_INSF_82, SUBCASE 1, Case 1 Time 1.;120;-27,08;-33,83;-6,20;-0,49;-1,14;0,25;2,43;10,32;19,56;3,37;0,71;0,62;33,84;34,37;-27,08;-33,83;-6,20;0,71;-1,14;33,84;34,37;-2,78;-3,02;-0,14;13,75;652758
IF_IP2_R4_8502005_JAM2M_OUT_-55, SUBCASE 1, Case 1 Time 1.;116;-19,19;-24,81;-6,10;-0,85;-1,44;0,90;6,42;25,50;33,79;4,39;0,56;0,46;33,79;34,19;25,50;33,79;-6,10;-0,85;-1,44;33,79;34,19;0,40;0,57;-0,13;13,68;652757
IF_LD_R4_8502001_82, SUBCASE 1, Case 1 Time 1.;18;-26,89;-33,57;-6,27;-0,51;-1,20;0,17;3,09;13,24;20,48;3,75;0,78;0,60;33,58;34,16;-26,89;-33,57;-6,27;0,78;-1,20;33,58;34,16;-2,24;-2,49;-0,12;13,66;652758
IF_IP2_R4_8502005_-55, SUBCASE 1, Case 1 Time 1.;8;-19,37;-24,87;-6,15;-0,87;-1,47;1,05;6,09;24,94;33,86;4,30;0,54;0,46;33,86;34,08;24,94;33,86;-6,15;-0,87;-1,47;33,86;34,08;0,30;0,47;-0,12;13,63;652757
IF_IP2_R4_8502005_JAM2_-55, SUBCASE 1, Case 1 Time 1.;80;-19,72;-25,30;-6,26;-0,89;-1,50;1,25;5,99;24,34;33,99;4,39;0,53;0,47;34,00;34,07;24,34;33,99;-6,26;-0,89;-1,50;34,00;34,07;0,14;0,32;-0,13;13,63;652757
IF_LD_R4_8502001_DIS3_82, SUBCASE 1, Case 1 Time 1.;72;-26,37;-33,38;-6,03;-0,43;-1,23;0,58;3,11;12,24;19,82;3,35;0,76;0,59;33,40;33,91;-26,37;-33,38;-6,03;0,76;-1,23;33,40;33,91;-2,40;-2,63;-0,14;13,56;652758
IF_LD_R4_8502001_JAM2_82, SUBCASE 1, Case 1 Time 1.;90;-26,43;-33,02;-6,15;-0,49;-1,19;0,15;3,18;13,10;20,01;3,65;0,78;0,59;33,04;33,60;-26,43;-33,02;-6,15;0,78;-1,19;33,04;33,60;-2,20;-2,45;-0,12;13,44;652758
IF_TO_R4_8502005_DIS3_-55, SUBCASE 1, Case 1 Time 1.;65;-18,28;-24,17;-6,46;-0,82;-1,42;1,00;6,20;23,76;33,14;4,45;0,48;0,43;33,14;33,34;23,76;33,14;-6,46;-0,82;-1,42;33,14;33,34;0,27;0,49;-0,13;13,34;652757
IF_IP2_R4_8502005_JAM2M_IN_-55, SUBCASE 1, Case 1 Time 1.;113;-19,82;-25,32;-6,48;-0,91;-1,54;0,64;5,02;21,72;33,33;4,56;0,45;0,48;33,38;33,01;21,72;33,33;-6,48;-0,91;-1,54;33,38;33,01;-0,32;-0,10;-0,13;13,20;652757
IF_IP2_R4_8502005_JAM2M_IN_23, SUBCASE 1, Case 1 Time 1.;112;-25,48;-32,21;-4,30;-0,71;-1,07;0,50;3,36;16,17;27,22;3,99;0,65;0,59;32,22;32,68;-25,48;-32,21;-4,30;-0,71;-1,07;32,22;32,68;-1,89;-1,92;-0,14;13,07;652758
IF_CR_R1_8501009_DIS1_-55, SUBCASE 1, Case 1 Time 1.;38;-18,27;-24,68;-5,93;-0,75;-1,38;0,93;6,48;23,11;32,21;5,55;0,51;0,45;32,21;32,53;23,11;32,21;-5,93;-0,75;-1,38;32,21;32,53;0,04;0,24;-0,16;13,01;652757
IF_IP2_R4_8502005_JAM2_23, SUBCASE 1, Case 1 Time 1.;79;-25,40;-32,04;-4,14;-0,69;-1,03;0,52;4,88;18,84;27,94;3,86;0,72;0,59;32,06;32,51;-25,40;-32,04;-4,14;0,72;-1,03;32,06;32,51;-1,43;-1,49;-0,14;13,00;652758
IF_CR_R1_8501009_DIS3_23, SUBCASE 1, Case 1 Time 1.;55;-24,88;-31,88;-4,70;-0,65;-1,05;0,28;5,74;19,77;28,01;4,45;0,75;0,57;31,89;32,30;-24,88;-31,88;-4,70;0,75;-1,05;31,89;32,30;-1,21;-1,27;-0,15;12,92;652758
IF_TO_R4_8502005_JAM2M_OUT_-55, SUBCASE 1, Case 1 Time 1.;122;-17,18;-22,29;-6,13;-0,80;-1,35;0,57;5,41;23,96;31,65;3,70;0,49;0,40;31,65;32,06;23,96;31,65;-6,13;-0,80;-1,35;31,65;32,06;0,53;0,71;-0,11;12,82;652757
IF_IP2_R4_8502005_23, SUBCASE 1, Case 1 Time 1.;7;-25,07;-31,58;-4,05;-0,69;-1,00;0,31;4,80;19,42;27,83;3,78;0,74;0,58;31,60;32,04;-25,07;-31,58;-4,05;0,74;-1,00;31,60;32,04;-1,27;-1,34;-0,13;12,82;652758
IF_LD_R2_8502001_82, SUBCASE 1, Case 1 Time 1.;15;-25,30;-31,47;-6,14;-0,47;-1,11;0,41;2,54;11,48;18,47;3,65;0,72;0,56;31,48;32,04;-25,30;-31,47;-6,14;0,72;-1,11;31,48;32,04;-2,23;-2,48;-0,12;12,81;652758
IF_TO_R4_8502005_-55, SUBCASE 1, Case 1 Time 1.;11;-17,28;-22,25;-6,17;-0,82;-1,38;0,66;5,27;23,46;31,72;3,61;0,47;0,41;31,72;31,97;23,46;31,72;-6,17;-0,82;-1,38;31,72;31,97;0,47;0,65;-0,11;12,79;652757
IF_TO_R4_8502005_JAM2_-55, SUBCASE 1, Case 1 Time 1.;83;-17,57;-22,59;-6,26;-0,83;-1,40;0,88;5,11;22,96;31,83;3,65;0,45;0,41;31,83;31,96;22,96;31,83;-6,26;-0,83;-1,40;31,83;31,96;0,34;0,52;-0,11;12,78;652757
IF_IP2_R4_8502005_JAM2M_OUT_23, SUBCASE 1, Case 1 Time 1.;115;-24,90;-31,44;-4,13;-0,67;-1,00;0,21;5,05;20,02;27,79;3,89;0,76;0,57;31,45;31,89;-24,90;-31,44;-4,13;0,76;-1,00;31,45;31,89;-1,18;-1,25;-0,14;12,75;652758
IF_CR_R1_8501009_DIS1_23, SUBCASE 1, Case 1 Time 1.;37;-23,90;-31,09;-5,28;-0,54;-1,08;0,36;4,70;17,48;26,07;5,09;0,70;0,57;31,10;31,50;-23,90;-31,09;-5,28;0,70;-1,08;31,10;31,50;-1,54;-1,58;-0,17;12,60;652758
IF_LD_R4_8502001_-55, SUBCASE 1, Case 1 Time 1.;17;-16,59;-21,30;-6,37;-0,82;-1,35;0,49;4,34;22,89;31,09;3,60;0,43;0,38;31,09;31,34;22,89;31,09;-6,37;-0,82;-1,35;31,09;31,34;0,55;0,73;-0,10;12,54;652757
IF_TO_R4_8502005_DIS3_23, SUBCASE 1, Case 1 Time 1.;64;-23,96;-30,78;-4,16;-0,61;-0,97;0,39;4,45;18,19;27,04;3,92;0,68;0,55;30,79;31,20;-23,96;-30,78;-4,16;0,68;-0,97;30,79;31,20;-1,31;-1,34;-0,14;12,48;652758
IF_LD_R4_8502001_JAM2_-55, SUBCASE 1, Case 1 Time 1.;89;-16,10;-20,73;-6,28;-0,80;-1,32;0,40;4,36;22,69;30,56;3,48;0,42;0,37;30,56;30,86;22,69;30,56;-6,28;-0,80;-1,32;30,56;30,86;0,59;0,77;-0,09;12,34;652757
IF_LD_R4_8502001_DIS3_-55, SUBCASE 1, Case 1 Time 1.;71;-16,22;-21,42;-6,32;-0,76;-1,33;0,71;5,24;22,01;30,63;3,70;0,41;0,38;30,63;30,83;22,01;30,63;-6,32;-0,76;-1,33;30,63;30,83;0,38;0,59;-0,11;12,33;652757
IF_TO_R4_8502005_JAM2M_IN_INSF_-55, SUBCASE 1, Case 1 Time 1.;119;-16,93;-21,61;-6,31;-0,84;-1,42;0,92;4,44;20,12;30,40;3,79;0,36;0,40;30,44;30,22;20,12;30,40;-6,31;-0,84;-1,42;30,44;30,22;0,01;0,21;-0,11;12,09;652757
IF_LD_R2_8502001_JAM2_82, SUBCASE 1, Case 1 Time 1.;87;-23,84;-29,66;-5,77;-0,42;-1,09;0,36;2,63;10,97;16,97;3,39;0,70;0,53;29,67;30,18;-23,84;-29,66;-5,77;0,70;-1,09;29,67;30,18;-2,09;-2,33;-0,11;12,07;652758
IF_LD_R4_8502001_JAM2M_INSF_82, SUBCASE 1, Case 1 Time 1.;129;-23,95;-29,43;-6,56;-0,47;-0,96;0,18;0,88;10,95;16,37;4,11;0,60;0,53;29,45;30,15;-23,95;-29,43;-6,56;0,60;-0,96;29,45;30,15;-2,30;-2,58;-0,10;12,06;652774
IF_TO_R4_8502005_JAM2_23, SUBCASE 1, Case 1 Time 1.;82;-23,29;-29,39;-3,37;-0,64;-0,93;0,35;3,74;17,46;25,78;3,12;0,65;0,53;29,40;29,82;-23,29;-29,39;-3,37;0,65;-0,93;29,40;29,82;-1,24;-1,30;-0,12;11,93;652758
IF_TO_R4_8502005_23, SUBCASE 1, Case 1 Time 1.;10;-23,01;-29,01;-3,32;-0,64;-0,91;0,18;3,73;17,95;25,69;3,08;0,66;0,52;29,03;29,44;-23,01;-29,01;-3,32;0,66;-0,91;29,03;29,44;-1,12;-1,17;-0,12;11,78;652758
IF_TO_R4_8502005_JAM2M_OUT_23, SUBCASE 1, Case 1 Time 1.;121;-22,91;-28,97;-3,40;-0,62;-0,91;0,13;3,97;18,48;25,65;3,19;0,69;0,52;28,98;29,39;-22,91;-28,97;-3,40;0,69;-0,91;28,98;29,39;-1,05;-1,11;-0,12;11,76;652758
IF_LD_R2_8502001_-55, SUBCASE 1, Case 1 Time 1.;14;-14,96;-19,11;-6,11;-0,78;-1,30;0,34;3,91;21,12;29,08;3,60;0,36;0,35;29,09;29,26;21,12;29,08;-6,11;-0,78;-1,30;29,09;29,26;0,58;0,76;-0,08;11,70;652757
IF_TO_R4_8502005_JAM2M_IN_INSF_23, SUBCASE 1, Case 1 Time 1.;118;-22,64;-28,54;-3,45;-0,64;-0,95;0,45;2,79;14,55;24,29;3,09;0,56;0,52;28,56;28,97;-22,64;-28,54;-3,45;-0,64;-0,95;28,56;28,97;-1,58;-1,62;-0,12;11,59;652758
IF_LD_R4_8502001_23, SUBCASE 1, Case 1 Time 1.;16;-22,38;-28,20;-3,62;-0,64;-0,88;0,08;2,74;17,41;25,11;2,66;0,63;0,50;28,21;28,65;-22,38;-28,20;-3,62;-0,64;-0,88;28,21;28,65;-1,04;-1,10;-0,11;11,46;652758
IF_LD_R4_8502001_DIS3_23, SUBCASE 1, Case 1 Time 1.;70;-21,93;-28,11;-3,38;-0,57;-0,87;0,38;3,82;16,47;24,53;3,16;0,61;0,49;28,12;28,51;-21,93;-28,11;-3,38;0,61;-0,87;28,12;28,51;-1,20;-1,23;-0,12;11,40;652758
IF_LD_R4_8502001_JAM2_23, SUBCASE 1, Case 1 Time 1.;88;-21,91;-27,63;-3,49;-0,63;-0,85;0,06;2,81;17,25;24,62;2,50;0,62;0,49;27,64;28,06;-21,91;-27,63;-3,49;-0,63;-0,85;27,64;28,06;-1,00;-1,05;-0,11;11,23;652758
IF_LD_R2_8502001_JAM2M_INSF_82, SUBCASE 1, Case 1 Time 1.;126;-22,21;-27,26;-6,32;-0,43;-0,90;0,23;0,76;10,19;14,60;3,90;0,55;0,49;27,27;27,96;-22,21;-27,26;-6,32;0,55;-0,90;27,27;27,96;-2,16;-2,44;-0,09;11,18;652774
IF_LD_R2_8502001_JAM2_-55, SUBCASE 1, Case 1 Time 1.;86;-13,51;-17,41;-5,85;-0,74;-1,22;0,06;3,91;20,59;27,58;3,28;0,34;0,31;27,59;27,86;20,59;27,58;-5,85;-0,74;-1,22;27,59;27,86;0,71;0,90;-0,08;11,14;652757
IF_IP1_R1_8502005_JAM2_82, SUBCASE 1, Case 1 Time 1.;78;-21,62;-27,36;-4,73;-0,30;-1,09;0,44;2,93;8,44;13,98;3,14;0,65;0,50;27,36;27,72;-21,62;-27,36;-4,73;0,65;-1,09;27,36;27,72;-2,25;-2,48;-0,13;11,09;652758
IF_IP1_R1_8502005_82, SUBCASE 1, Case 1 Time 1.;6;-21,35;-26,98;-4,66;-0,29;-1,09;0,49;3,03;8,45;13,68;3,08;0,65;0,50;26,99;27,34;-21,35;-26,98;-4,66;0,65;-1,09;26,99;27,34;-2,21;-2,43;-0,13;10,93;652758
IF_LD_R4_8502001_JAM2M_INSF_-55, SUBCASE 1, Case 1 Time 1.;128;-13,63;-17,08;-5,97;-0,79;-1,31;0,26;2,48;18,67;27,26;4,18;0,25;0,31;27,32;27,33;18,67;27,26;-5,97;-0,79;-1,31;27,32;27,33;0,57;0,71;-0,06;10,93;652757
IF_LD_R2_8502001_23, SUBCASE 1, Case 1 Time 1.;13;-20,78;-26,09;-3,48;-0,61;-0,83;0,14;2,33;15,64;23,10;2,70;0,56;0,46;26,10;26,51;-20,78;-26,09;-3,48;-0,61;-0,83;26,10;26,51;-1,02;-1,08;-0,10;10,60;652758
IF_LD_R2_8502001_JAM2M_INSF_-55, SUBCASE 1, Case 1 Time 1.;125;-11,90;-14,90;-5,71;-0,75;-1,25;0,04;2,16;17,38;25,41;4,03;0,20;0,28;25,46;25,48;17,38;25,41;-5,71;-0,75;-1,25;25,46;25,48;0,67;0,82;-0,06;10,19;652757
IF_IP1_R1_8502005_JAM2_-55, SUBCASE 1, Case 1 Time 1.;77;-11,54;-15,73;-4,93;-0,62;-1,14;0,16;5,33;18,25;24,96;3,91;0,31;0,29;24,96;25,21;18,25;24,96;-4,93;-0,62;-1,14;24,96;25,21;0,53;0,74;-0,09;10,08;652757
IF_IP1_R1_8502005_JAM2M_OUT_82, SUBCASE 1, Case 1 Time 1.;111;-19,51;-24,81;-4,09;-0,25;-1,11;0,23;2,71;7,18;10,70;3,32;0,66;0,46;24,81;25,12;-19,51;-24,81;-4,09;0,66;-1,11;24,81;25,12;-2,30;-2,50;-0,13;10,05;652758
IF_IP1_R1_8502005_-55, SUBCASE 1, Case 1 Time 1.;5;-11,20;-15,28;-4,87;-0,60;-1,11;0,06;5,42;18,26;24,57;3,81;0,31;0,28;24,58;24,88;18,26;24,57;-4,87;-0,60;-1,11;24,58;24,88;0,58;0,79;-0,09;9,95;652757
IF_LD_R2_8502001_JAM2_23, SUBCASE 1, Case 1 Time 1.;85;-19,33;-24,28;-3,09;-0,56;-0,76;0,05;2,37;15,13;21,60;2,23;0,55;0,43;24,29;24,66;-19,33;-24,28;-3,09;-0,56;-0,76;24,29;24,66;-0,88;-0,93;-0,09;9,86;652758
IF_LD_R4_8502001_JAM2M_INSF_23, SUBCASE 1, Case 1 Time 1.;127;-19,48;-24,12;-4,00;-0,61;-0,84;0,29;1,29;12,99;21,10;3,66;0,45;0,43;24,13;24,59;-19,48;-24,12;-4,00;-0,61;-0,84;24,13;24,59;-1,09;-1,18;-0,08;9,84;652758
IF_LD_R2_8502001_DIS3_82, SUBCASE 1, Case 1 Time 1.;69;-19,32;-24,00;-5,23;-0,29;-0,91;0,60;1,79;7,78;11,65;3,01;0,55;0,43;24,00;24,43;-19,32;-24,00;-5,23;0,55;-0,91;24,00;24,43;-1,95;-2,19;-0,10;9,77;652758
IF_LD_R2_8502001_DIS3_-55, SUBCASE 1, Case 1 Time 1.;68;-9,09;-12,00;-5,16;-0,61;-1,06;0,47;3,30;16,69;22,50;2,95;0,20;0,21;22,51;22,74;16,69;22,50;-5,16;-0,61;-1,06;22,51;22,74;0,85;1,05;-0,05;9,10;652757
IF_IP1_R1_8502005_JAM2_23, SUBCASE 1, Case 1 Time 1.;76;-17,23;-22,16;-3,54;-0,42;-0,74;0,40;3,63;12,69;18,78;3,36;0,50;0,41;22,17;22,46;-17,23;-22,16;-3,54;0,50;-0,74;22,17;22,46;-1,06;-1,09;-0,11;8,98;652758
IF_LD_R2_8502001_JAM2M_INSF_23, SUBCASE 1, Case 1 Time 1.;124;-17,71;-21,92;-3,71;-0,57;-0,78;0,18;1,21;11,83;19,31;3,36;0,40;0,39;21,93;22,35;-17,71;-21,92;-3,71;-0,57;-0,78;21,93;22,35;-0,95;-1,04;-0,07;8,94;652758
IF_IP1_R1_8502005_JAM2M_OUT_-55, SUBCASE 1, Case 1 Time 1.;110;-9,35;-13,31;-4,66;-0,45;-0,93;0,18;5,00;16,99;21,99;3,94;0,31;0,24;21,99;22,29;16,99;21,99;-4,66;-0,45;-0,93;21,99;22,29;0,50;0,73;-0,09;8,92;652757
IF_IP1_R1_8502005_23, SUBCASE 1, Case 1 Time 1.;4;-16,92;-21,74;-3,44;-0,41;-0,73;0,46;3,67;12,70;18,44;3,28;0,50;0,40;21,75;22,03;-16,92;-21,74;-3,44;0,50;-0,73;21,75;22,03;-1,01;-1,04;-0,11;8,81;652758
IF_LD_R2_8502001_DIS1_INSF_82, SUBCASE 1, Case 1 Time 1.;51;-17,07;-21,05;-4,97;-0,23;-0,82;0,38;1,26;6,99;9,09;2,90;0,49;0,38;21,06;21,47;-17,07;-21,05;-4,97;0,49;-0,82;21,06;21,47;-1,80;-2,05;-0,08;8,59;652758
IF_LD_R2_8502001_DIS1_INSF_-55, SUBCASE 1, Case 1 Time 1.;50;-7,65;-9,36;-4,84;-0,56;-0,97;0,53;2,72;15,24;20,22;2,83;0,16;0,18;20,22;20,48;15,24;20,22;-4,84;-0,56;-0,97;20,22;20,48;0,99;1,18;-0,04;8,19;652757
IF_IP1_R1_8502005_DIS3_82, SUBCASE 1, Case 1 Time 1.;60;-15,82;-19,81;-4,09;-0,21;-0,84;0,47;1,84;4,33;7,29;1,99;0,48;0,37;19,82;20,09;-15,82;-19,81;-4,09;0,48;-0,84;19,82;20,09;-1,96;-2,17;-0,10;8,03;652758
IF_IP1_R1_8502005_JAM2M_OUT_23, SUBCASE 1, Case 1 Time 1.;109;-15,08;-19,66;-3,52;-0,25;-0,75;0,08;3,16;11,43;15,45;3,45;0,51;0,36;19,67;19,83;-15,08;-19,66;-3,52;0,51;-0,75;19,67;19,83;-1,08;-1,09;-0,11;7,93;652758
IF_IP1_R1_8502005_DIS1_82, SUBCASE 1, Case 1 Time 1.;42;-15,34;-19,38;-3,96;-0,20;-0,85;0,09;1,69;2,99;6,46;2,25;0,46;0,36;19,39;19,63;-15,34;-19,38;-3,96;0,46;-0,85;19,39;19,63;-2,09;-2,28;-0,11;7,85;652758
IF_LD_R2_8502001_DIS3_23, SUBCASE 1, Case 1 Time 1.;67;-14,86;-18,72;-2,48;-0,42;-0,59;0,15;1,80;11,16;16,39;1,83;0,40;0,33;18,72;19,01;-14,86;-18,72;-2,48;-0,42;-0,59;18,72;19,01;-0,75;-0,80;-0,07;7,60;652758
IF_IP1_R1_8502005_DIS3_-55, SUBCASE 1, Case 1 Time 1.;59;-6,32;-8,09;-4,23;-0,45;-0,89;0,39;3,83;13,77;18,21;2,73;0,16;0,16;18,22;18,50;13,77;18,21;-4,23;-0,45;-0,89;18,22;18,50;0,85;1,08;-0,05;7,40;652757
IF_LD_R2_8502001_FS11_82, SUBCASE 1, Case 1 Time 1.;33;-15,28;-17,29;-4,19;-0,23;-0,53;0,27;0,98;3,17;1,90;3,39;0,42;0,35;17,31;17,85;-15,28;-17,29;-4,19;0,42;-0,53;17,31;17,85;-3,07;-3,15;-0,03;7,14;652790
IF_IP1_R1_8502005_DIS1_-55, SUBCASE 1, Case 1 Time 1.;41;-5,49;-7,73;-4,22;-0,42;-0,86;0,42;3,76;12,87;17,45;2,97;0,16;0,16;17,46;17,72;12,87;17,45;-4,22;-0,42;-0,86;17,46;17,72;0,74;0,97;-0,05;7,09;652757
IF_LD_R4_8502001_DIS1_INSF_82, SUBCASE 1, Case 1 Time 1.;54;-13,67;-16,53;-4,51;-0,17;-0,68;0,05;0,39;6,03;5,24;2,75;0,41;0,30;16,53;17,04;-13,67;-16,53;-4,51;0,41;-0,68;16,53;17,04;-1,55;-1,80;-0,06;6,82;652774
IF_LD_R4_8502001_DIS1_INSF_-55, SUBCASE 1, Case 1 Time 1.;53;-5,87;-4,60;-4,31;-0,48;-0,82;0,43;1,50;12,93;16,18;2,64;0,14;0,19;16,19;16,52;12,93;16,18;-4,31;-0,48;-0,82;16,19;16,52;1,27;1,46;-0,01;6,61;652757
IF_LD_R2_8502001_DIS1_INSF_23, SUBCASE 1, Case 1 Time 1.;49;-12,67;-15,86;-2,24;-0,37;-0,50;0,08;1,23;9,60;13,92;1,65;0,34;0,28;15,86;16,12;-12,67;-15,86;-2,24;-0,37;-0,50;15,86;16,12;-0,60;-0,65;-0,06;6,45;652758
IF_LD_R4_8502001_FS11_82, SUBCASE 1, Case 1 Time 1.;36;-13,18;-15,21;-4,22;-0,17;-0,56;0,14;0,63;4,67;2,34;2,74;0,39;0,29;15,22;15,86;-13,18;-15,21;-4,22;0,39;-0,56;15,22;15,86;-2,10;-2,29;-0,03;6,35;652790
IF_CR_R1_8501009_FS11_-55, SUBCASE 1, Case 1 Time 1.;20;-4,64;-2,44;-2,68;-0,49;-0,71;0,20;0,97;13,85;15,54;2,51;0,11;0,19;15,54;15,66;13,85;15,54;-2,68;-0,49;-0,71;15,54;15,66;2,06;2,09;0,01;6,27;652789
IF_IP1_R1_8502005_DIS3_23, SUBCASE 1, Case 1 Time 1.;58;-11,38;-14,57;-2,25;-0,27;-0,48;0,18;2,30;8,22;12,06;2,14;0,34;0,27;14,57;14,76;-11,38;-14,57;-2,25;0,34;-0,48;14,57;14,76;-0,75;-0,77;-0,07;5,90;652758
IF_IP1_R1_8502005_DIS1_23, SUBCASE 1, Case 1 Time 1.;40;-10,91;-14,16;-2,50;-0,23;-0,49;0,08;1,62;7,27;11,26;2,42;0,31;0,26;14,16;14,36;-10,91;-14,16;-2,50;0,31;-0,49;14,16;14,36;-0,88;-0,88;-0,08;5,74;652758
IF_TO_R4_8502005_FS11_82, SUBCASE 1, Case 1 Time 1.;30;-11,78;-13,71;-3,96;-0,14;-0,57;0,17;0,34;4,94;2,08;2,46;0,37;0,26;13,72;14,25;-11,78;-13,71;-3,96;0,37;-0,57;13,72;14,25;-1,65;-1,89;-0,04;5,70;652774
IF_IP2_R4_8502005_FS11_82, SUBCASE 1, Case 1 Time 1.;27;-11,75;-13,65;-3,75;-0,14;-0,57;0,19;0,22;5,01;2,15;2,23;0,38;0,26;13,66;14,11;-11,75;-13,65;-3,75;0,38;-0,57;13,66;14,11;-1,61;-1,85;-0,04;5,64;652774
IF_CR_R1_8501009_FS11_82, SUBCASE 1, Case 1 Time 1.;21;-11,05;-13,33;-4,04;-0,17;-0,68;0,09;0,79;7,60;4,00;2,53;0,41;0,24;13,33;13,79;-11,05;-13,33;-4,04;0,41;-0,68;13,33;13,79;-0,78;-1,18;-0,05;5,52;652774
IF_TO_R4_8502005_DIS1_82, SUBCASE 1, Case 1 Time 1.;48;-11,11;-13,15;-3,90;-0,13;-0,58;0,22;0,33;4,64;2,16;2,33;0,35;0,25;13,16;13,64;-11,11;-13,15;-3,90;0,35;-0,58;13,16;13,64;-1,46;-1,70;-0,05;5,45;652774
IF_TO_R4_8502005_DIS1_-55, SUBCASE 1, Case 1 Time 1.;47;-4,46;-2,83;-3,74;-0,41;-0,71;0,25;1,27;10,94;13,31;2,63;0,12;0,28;13,32;13,54;10,94;13,31;-3,74;-0,41;-0,71;13,32;13,54;1,37;1,56;0,01;5,42;652773
IF_LD_R4_8502001_FS11_-55, SUBCASE 1, Case 1 Time 1.;35;-6,72;-3,18;-4,61;-0,43;-0,73;0,30;0,36;9,91;13,08;3,36;0,13;0,30;13,12;13,52;9,91;13,08;-4,61;-0,43;-0,73;13,12;13,52;0,71;0,96;0,02;5,41;652773
IF_LD_R2_8502001_FS11_-55, SUBCASE 1, Case 1 Time 1.;32;-8,66;-4,90;-5,44;-0,43;-0,77;0,26;0,85;7,73;12,63;4,32;0,15;0,33;12,85;13,41;-8,66;12,63;-5,44;-0,43;-0,77;12,85;13,41;-0,26;0,10;0,03;5,37;652757
IF_IP2_R4_8502005_FS11_-55, SUBCASE 1, Case 1 Time 1.;26;-5,41;-2,94;-3,67;-0,43;-0,72;0,19;1,11;10,86;13,07;2,79;0,13;0,29;13,07;13,33;10,86;13,07;-3,67;-0,43;-0,72;13,07;13,33;1,23;1,42;0,01;5,33;652773
IF_TO_R4_8502005_FS11_-55, SUBCASE 1, Case 1 Time 1.;29;-5,41;-2,93;-3,94;-0,42;-0,71;0,21;0,75;10,61;12,91;2,60;0,12;0,30;12,91;13,28;10,61;12,91;-3,94;-0,42;-0,71;12,91;13,28;1,18;1,38;0,02;5,31;652773
IF_IP2_R4_8502005_DIS1_82, SUBCASE 1, Case 1 Time 1.;45;-10,84;-12,73;-3,61;-0,12;-0,57;0,11;0,54;4,22;2,03;2,07;0,35;0,25;12,73;13,12;-10,84;-12,73;-3,61;0,35;-0,57;12,73;13,12;-1,50;-1,75;-0,05;5,25;652774
IF_IP2_R4_8502005_DIS1_-55, SUBCASE 1, Case 1 Time 1.;44;-4,43;-2,89;-3,50;-0,40;-0,71;0,21;1,22;10,58;12,81;2,91;0,13;0,29;12,81;12,98;10,58;12,81;-3,50;-0,40;-0,71;12,81;12,98;1,32;1,50;0,01;5,19;652773
IF_LD_R2_8502001_FS11_23, SUBCASE 1, Case 1 Time 1.;31;-10,77;-11,90;-2,56;-0,25;-0,31;0,07;1,36;2,93;6,59;3,74;0,27;0,25;11,91;12,22;-10,77;-11,90;3,74;0,27;-0,31;11,91;12,22;-1,86;-1,74;0,00;4,89;652774
IF_LD_R4_8502001_DIS1_INSF_23, SUBCASE 1, Case 1 Time 1.;52;-9,20;-11,25;-1,82;-0,30;-0,35;0,04;0,34;7,39;10,01;1,34;0,26;0,20;11,25;11,48;-9,20;-11,25;-1,82;-0,30;-0,35;11,25;11,48;-0,34;-0,40;-0,03;4,59;652758
IF_IP1_R1_8502005_FS11_-55, SUBCASE 1, Case 1 Time 1.;23;-1,24;-2,58;-2,57;-0,33;-0,57;1,20;2,64;9,48;10,84;3,30;0,09;0,36;10,84;10,85;9,48;10,84;3,30;-0,33;-0,57;10,84;10,85;1,99;2,13;0,02;4,34;652789
IF_LD_R4_8502001_FS11_23, SUBCASE 1, Case 1 Time 1.;34;-8,67;-9,79;-1,81;-0,25;-0,27;0,10;0,98;4,70;7,03;2,17;0,24;0,19;9,80;10,16;-8,67;-9,79;2,17;-0,25;-0,27;9,80;10,16;-0,90;-0,89;-0,01;4,06;652774
IF_LD_JAM2M_IN_-55, SUBCASE 1, Case 1 Time 1.;107;-0,95;-2,30;-2,01;-0,31;-0,54;3,06;4,35;8,11;9,42;3,04;0,08;0,55;9,42;9,52;8,11;9,42;3,04;-0,31;0,55;9,42;9,52;2,67;2,76;0,03;3,81;652774
IF_CR_R1_8501009_FS11_23, SUBCASE 1, Case 1 Time 1.;19;-6,53;-8,12;-1,38;-0,31;-0,31;0,11;0,59;8,34;8,90;1,02;0,26;0,14;8,90;9,22;8,34;8,90;-1,38;-0,31;-0,31;8,90;9,22;0,43;0,23;-0,02;3,69;652789
IF_IP1_R1_8502005_FS11_82, SUBCASE 1, Case 1 Time 1.;24;-6,94;-8,42;-3,28;-0,09;-0,51;0,08;0,87;3,51;2,33;2,52;0,27;0,23;8,42;8,77;-6,94;-8,42;-3,28;0,27;-0,51;8,42;8,77;-0,86;-1,16;-0,04;3,51;652774
IF_TO_R4_8502005_FS11_23, SUBCASE 1, Case 1 Time 1.;28;-7,25;-8,28;-1,35;-0,24;-0,26;0,25;0,30;5,15;6,78;1,25;0,22;0,16;8,29;8,56;-7,25;-8,28;-1,35;-0,24;-0,26;8,29;8,56;-0,44;-0,48;-0,01;3,43;652774
IF_IP2_R4_8502005_FS11_23, SUBCASE 1, Case 1 Time 1.;25;-7,22;-8,22;-1,10;-0,25;-0,27;0,19;0,30;5,38;6,85;0,91;0,23;0,16;8,23;8,44;-7,22;-8,22;-1,10;-0,25;-0,27;8,23;8,44;-0,38;-0,44;-0,01;3,38;652774
IF_TO_JAM2M_IN_-55, SUBCASE 1, Case 1 Time 1.;101;-0,71;-2,52;-2,36;-0,27;-0,53;1,76;3,32;7,01;8,09;3,32;0,08;0,51;8,09;8,40;7,01;8,09;3,32;-0,27;-0,53;8,09;8,40;2,20;2,35;0,03;3,36;652790
IF_IP2_JAM2M_IN_-55, SUBCASE 1, Case 1 Time 1.;95;-0,67;-2,55;-2,42;-0,26;-0,53;1,62;3,16;6,74;7,73;3,34;0,09;0,50;7,73;8,15;6,74;7,73;3,34;-0,26;-0,53;7,73;8,15;2,13;2,29;0,02;3,26;652575
IF_TO_R4_8502005_DIS1_23, SUBCASE 1, Case 1 Time 1.;46;-6,65;-7,87;-1,19;-0,23;-0,25;0,02;0,21;5,41;6,93;0,84;0,20;0,15;7,87;8,03;-6,65;-7,87;-1,19;-0,23;-0,25;7,87;8,03;-0,24;-0,29;-0,02;3,21;652774
IF_IP2_R4_8502005_DIS1_23, SUBCASE 1, Case 1 Time 1.;43;-6,40;-7,46;-0,89;-0,22;-0,25;0,09;0,40;5,03;6,38;0,57;0,20;0,15;7,46;7,60;-6,40;-7,46;-0,89;-0,22;-0,25;7,46;7,60;-0,29;-0,35;-0,02;3,04;652774
IF_IP1_JAM2M_OUT_-55, SUBCASE 1, Case 1 Time 1.;92;-2,48;-3,19;-3,73;-0,20;-0,36;0,83;1,05;4,71;5,82;4,18;0,11;0,48;5,82;7,59;4,71;5,82;4,18;-0,20;0,48;5,82;7,59;0,78;1,14;0,05;3,04;652758
IF_TO_JAM2M_OUT_-55, SUBCASE 1, Case 1 Time 1.;104;-1,30;-3,11;-3,48;-0,22;-0,37;0,98;1,38;4,83;6,25;4,18;0,11;0,49;6,25;7,39;4,83;6,25;4,18;-0,22;0,49;6,25;7,39;0,97;1,31;0,05;2,96;652790
IF_IP1_JAM2M_OUT_82, SUBCASE 1, Case 1 Time 1.;93;-6,43;-7,09;-2,40;-0,07;-0,39;1,63;2,83;0,83;1,71;1,48;0,26;0,44;7,09;7,34;-6,43;-7,09;-2,40;0,26;0,44;7,09;7,34;-2,08;-2,14;-0,02;2,94;652790
IF_IP2_JAM2M_OUT_-55, SUBCASE 1, Case 1 Time 1.;98;-1,38;-3,06;-3,47;-0,21;-0,39;1,22;1,54;5,01;6,21;4,03;0,10;0,48;6,21;7,15;5,01;6,21;4,03;-0,21;0,48;6,21;7,15;1,04;1,37;0,04;2,86;652575
IF_IP2_JAM2M_OUT_82, SUBCASE 1, Case 1 Time 1.;99;-6,01;-6,83;-2,56;-0,06;-0,39;1,34;2,50;0,65;1,84;1,57;0,23;0,40;6,83;7,08;-6,01;-6,83;-2,56;0,23;0,40;6,83;7,08;-1,82;-1,93;-0,02;2,83;652790
IF_TO_JAM2M_OUT_82, SUBCASE 1, Case 1 Time 1.;105;-5,69;-6,41;-2,41;-0,06;-0,38;1,83;2,97;0,71;1,78;1,55;0,22;0,42;6,41;6,61;-5,69;-6,41;-2,41;0,22;0,42;6,41;6,61;-1,90;-1,99;-0,02;2,64;652790
IF_LD_JAM2M_IN_82, SUBCASE 1, Case 1 Time 1.;108;-3,01;-4,26;-3,51;-0,08;-0,31;0,20;0,24;2,48;2,57;3,07;0,13;0,25;4,26;6,37;-3,01;-4,26;-3,51;0,13;-0,31;4,26;6,37;-0,22;-0,57;-0,04;2,55;652774
IF_TO_JAM2M_IN_82, SUBCASE 1, Case 1 Time 1.;102;-3,59;-4,51;-3,24;-0,08;-0,35;0,75;0,98;1,32;2,36;2,72;0,15;0,27;4,51;5,76;-3,59;-4,51;-3,24;0,15;-0,35;4,51;5,76;-0,68;-0,96;-0,05;2,30;652790
IF_IP2_JAM2M_IN_82, SUBCASE 1, Case 1 Time 1.;96;-3,71;-4,83;-3,22;-0,08;-0,36;0,82;1,11;1,23;2,33;2,66;0,16;0,26;4,84;5,72;-3,71;-4,83;-3,22;0,16;-0,36;4,84;5,72;-0,75;-1,02;-0,05;2,29;652575
IF_IP1_R1_8502005_FS11_23, SUBCASE 1, Case 1 Time 1.;22;-2,42;-3,23;-0,93;-0,14;-0,14;0,05;0,44;3,98;4,18;0,59;0,11;0,05;4,18;4,45;3,98;4,18;-0,93;-0,14;-0,14;4,18;4,45;0,36;0,26;-0,01;1,78;652789
IF_IP1_JAM2M_OUT_23, SUBCASE 1, Case 1 Time 1.;91;-3,31;-1,85;-0,87;-0,03;-0,02;0,77;1,27;0,46;0,19;0,79;0,11;0,10;3,31;3,35;-3,31;-1,85;-0,87;0,11;0,10;3,31;3,35;-0,85;-0,73;0,02;1,34;652758
IF_LD_JAM2M_IN_23, SUBCASE 1, Case 1 Time 1.;106;-0,47;-0,12;-0,67;-0,11;-0,09;0,83;1,07;2,80;2,23;0,88;0,04;0,06;2,80;3,00;2,80;2,23;0,88;-0,11;-0,09;2,80;3,00;1,01;0,85;0,00;1,20;652790
IF_IP2_JAM2M_OUT_23, SUBCASE 1, Case 1 Time 1.;97;-2,25;-1,39;-0,59;-0,02;-0,03;0,40;0,84;0,29;0,12;0,50;0,08;0,06;2,25;2,28;-2,25;-1,39;-0,59;0,08;0,06;2,25;2,28;-0,59;-0,50;0,01;0,91;652575
IF_TO_JAM2M_OUT_23, SUBCASE 1, Case 1 Time 1.;103;-2,13;-1,19;-0,62;-0,02;-0,02;0,70;0,83;0,34;0,14;0,55;0,07;0,09;2,14;2,23;-2,13;-1,19;-0,62;0,07;0,09;2,14;2,23;-0,66;-0,56;0,01;0,89;652790
IF_TO_JAM2M_IN_23, SUBCASE 1, Case 1 Time 1.;100;-0,24;-0,12;-0,45;-0,07;-0,07;0,62;0,76;2,04;1,09;0,54;0,02;0,02;2,04;2,11;2,04;1,09;0,54;-0,07;-0,07;2,04;2,11;0,55;0,46;-0,01;0,84;652790
IF_IP2_JAM2M_IN_23, SUBCASE 1, Case 1 Time 1.;94;-0,20;-0,13;-0,46;-0,07;-0,08;0,39;0,49;1,94;0,94;0,50;0,02;0,02;1,95;2,01;1,94;0,94;0,50;-0,07;-0,08;1,95;2,01;0,48;0,40;-0,01;0,80;652790
Ref CID;Coord Material;;;;;;;;;;;;;;;;;;;;;;;;;;
