LC_Name;LC_ID;qxMin;qyMin;qxyMin;qxzMin;qyzMin;qshearMin;qvonmisesMin;qxMax;qyMax;qxyMax;qxzMax;qyzMax;qshearMax;qvonmisesMax;qxAbsMax;qyAbsMax;qxyAbsMax;qxzAbsMax;qyzAbsMax;qshearAbsMax;qvonmisesAbsMax;qxAverage;qyAverage;qxyAverage;sigmaVonMisesMax;CriticalElemID
IF_CR_R1_8501009_-55, SUBCASE 1, Case 1 Time 1.;2;-65,59;-71,82;-28,21;-13,29;-15,79;1,04;32,87;72,35;4,70;29,17;18,66;21,78;73,15;84,77;72,35;-71,82;29,17;18,66;21,78;73,15;84,77;2,39;-19,53;1,12;12,11;653974
IF_CR_R1_8501009_23, SUBCASE 1, Case 1 Time 1.;1;-65,56;-71,56;-28,29;-13,32;-15,84;2,69;33,59;72,56;4,69;28,94;18,71;21,73;72,89;84,54;72,56;-71,56;28,94;18,71;21,73;72,89;84,54;1,77;-19,85;1,69;12,08;653974
IF_CR_R1_8501009_82, SUBCASE 1, Case 1 Time 1.;3;-65,54;-71,36;-28,35;-13,34;-15,88;2,81;34,83;72,72;4,68;29,38;18,74;21,70;72,87;84,37;72,72;-71,36;29,38;18,74;21,70;72,87;84,37;1,25;-20,61;2,16;12,05;653974
IF_CR_R1_8501009_JAM2_-55, SUBCASE 1, Case 1 Time 1.;74;-64,21;-71,04;-27,69;-12,78;-14,92;0,64;32,52;74,62;4,87;28,59;17,56;20,85;74,78;83,70;74,62;-71,04;28,59;17,56;20,85;74,78;83,70;3,70;-18,82;1,11;11,96;653912
IF_CR_R1_8501009_JAM2_23, SUBCASE 1, Case 1 Time 1.;73;-64,38;-70,90;-27,84;-12,87;-15,09;0,97;33,05;74,52;4,84;28,50;17,75;20,93;74,68;83,64;74,52;-70,90;28,50;17,75;20,93;74,68;83,64;2,92;-19,35;1,71;11,95;653912
IF_CR_R1_8501009_JAM2_82, SUBCASE 1, Case 1 Time 1.;75;-64,51;-70,78;-27,96;-12,95;-15,21;1,36;34,20;74,45;4,81;29,23;17,90;20,99;74,60;83,58;74,45;-70,78;29,23;17,90;20,99;74,60;83,58;2,25;-20,08;2,15;11,94;653912
IF_IP2_R4_8502005_JAM2M_IN_82, SUBCASE 1, Case 1 Time 1.;114;-20,48;-30,01;-16,96;-3,74;-1,77;1,82;10,18;65,33;15,44;15,82;1,29;4,18;65,48;64,69;65,33;-30,01;-16,96;-3,74;4,18;65,48;64,69;15,23;-3,47;1,29;9,24;653912
IF_IP2_R4_8502005_JAM2M_IN_23, SUBCASE 1, Case 1 Time 1.;112;-20,30;-30,02;-16,44;-3,99;-1,82;0,78;10,13;65,20;15,80;14,25;1,52;4,40;65,35;64,58;65,20;-30,02;-16,44;-3,99;4,40;65,35;64,58;15,41;-3,12;0,85;9,23;653912
IF_IP2_R4_8502005_JAM2M_IN_-55, SUBCASE 1, Case 1 Time 1.;113;-20,05;-30,03;-15,76;-4,31;-1,90;2,50;11,46;65,03;16,29;13,58;1,82;4,69;65,17;64,42;65,03;-30,03;-15,76;-4,31;4,69;65,17;64,42;16,54;-2,20;0,24;9,20;653912
IF_IP2_R4_8502005_DIS3_82, SUBCASE 1, Case 1 Time 1.;63;-41,35;-47,36;-18,37;-7,50;-8,21;1,67;22,51;57,51;3,69;20,18;9,51;12,13;57,63;59,26;57,51;-47,36;20,18;9,51;12,13;57,63;59,26;4,90;-12,25;1,58;8,47;653912
IF_IP2_R4_8502005_DIS3_23, SUBCASE 1, Case 1 Time 1.;61;-41,31;-47,48;-18,37;-7,48;-8,18;0,41;21,97;57,27;3,69;19,34;9,48;12,17;57,39;59,06;57,27;-47,48;19,34;9,48;12,17;57,39;59,06;5,32;-11,65;1,13;8,44;653912
IF_IP2_R4_8502005_DIS3_-55, SUBCASE 1, Case 1 Time 1.;62;-41,25;-47,63;-18,37;-7,45;-8,13;2,01;22,69;56,96;3,69;18,52;9,43;12,21;57,08;58,79;56,96;-47,63;18,52;9,43;12,21;57,08;58,79;6,02;-11,12;0,54;8,40;653912
IF_TO_R4_8502005_JAM2M_IN_INSF_82, SUBCASE 1, Case 1 Time 1.;120;-15,85;-24,14;-15,32;-3,87;-1,65;2,37;7,12;57,90;15,04;14,32;1,22;4,24;58,03;57,33;57,90;-24,14;-15,32;-3,87;4,24;58,03;57,33;14,04;-2,17;1,23;8,19;653912
IF_TO_R4_8502005_JAM2M_IN_INSF_23, SUBCASE 1, Case 1 Time 1.;118;-15,77;-24,22;-14,79;-4,03;-1,70;1,42;7,56;57,61;15,27;12,45;1,44;4,37;57,74;57,07;57,61;-24,22;-14,79;-4,03;4,37;57,74;57,07;14,28;-1,89;0,80;8,15;653912
IF_TO_R4_8502005_JAM2M_IN_INSF_-55, SUBCASE 1, Case 1 Time 1.;119;-15,68;-24,32;-14,08;-4,23;-1,76;1,00;9,76;57,23;15,56;11,80;1,74;4,54;57,36;56,71;57,23;-24,32;-14,08;-4,23;4,54;57,36;56,71;15,13;-1,03;0,19;8,10;653912
IF_IP2_R4_8502005_JAM2_82, SUBCASE 1, Case 1 Time 1.;81;-32,87;-39,81;-15,61;-4,91;-4,47;2,26;19,78;55,56;3,60;17,49;5,38;7,71;55,67;55,99;55,56;-39,81;17,49;5,38;7,71;55,67;55,99;7,51;-9,06;1,37;8,00;653912
IF_CR_R1_8501009_DIS1_-55, SUBCASE 1, Case 1 Time 1.;38;-42,33;-47,97;-18,46;-7,11;-8,01;0,94;18,96;48,21;3,06;18,60;9,19;11,77;48,78;55,93;48,21;-47,97;18,60;9,19;11,77;48,78;55,93;3,06;-12,20;0,36;7,99;653970
IF_IP2_R4_8502005_JAM2_23, SUBCASE 1, Case 1 Time 1.;79;-32,66;-39,79;-15,45;-4,84;-4,35;2,04;20,37;55,40;3,60;16,23;5,25;7,65;55,51;55,83;55,40;-39,79;16,23;5,25;7,65;55,51;55,83;7,99;-8,50;0,93;7,98;653912
IF_CR_R1_8501009_DIS3_-55, SUBCASE 1, Case 1 Time 1.;56;-41,96;-47,79;-18,41;-7,08;-7,96;1,82;19,37;49,72;3,16;18,54;9,09;11,74;49,82;55,74;49,72;-47,79;18,54;9,09;11,74;49,82;55,74;3,65;-11,93;0,39;7,96;653912
IF_CR_R1_8501009_DIS1_23, SUBCASE 1, Case 1 Time 1.;37;-42,30;-47,72;-18,42;-7,12;-8,05;0,62;18,89;48,45;3,06;18,36;9,22;11,71;48,55;55,70;48,45;-47,72;-18,42;9,22;11,71;48,55;55,70;2,51;-12,55;0,95;7,96;653970
IF_IP2_R4_8502005_JAM2_-55, SUBCASE 1, Case 1 Time 1.;80;-32,37;-39,76;-15,50;-4,74;-4,19;1,85;20,39;55,18;4,09;15,20;5,08;7,57;55,30;55,61;55,18;-39,76;-15,50;5,08;7,57;55,30;55,61;8,83;-7,77;0,32;7,94;653912
IF_CR_R1_8501009_DIS3_23, SUBCASE 1, Case 1 Time 1.;55;-41,95;-47,55;-18,38;-7,10;-8,01;1,50;19,18;49,97;3,15;18,45;9,13;11,69;50,07;55,53;49,97;-47,55;18,45;9,13;11,69;50,07;55,53;3,00;-12,37;0,99;7,93;653912
IF_CR_R1_8501009_DIS1_82, SUBCASE 1, Case 1 Time 1.;39;-42,27;-47,52;-18,39;-7,14;-8,08;0,37;20,07;48,63;3,05;18,93;9,23;11,66;48,72;55,53;48,63;-47,52;18,93;9,23;11,66;48,72;55,53;1,94;-13,28;1,40;7,93;653970
IF_CR_R1_8501009_DIS3_82, SUBCASE 1, Case 1 Time 1.;57;-41,94;-47,37;-18,36;-7,12;-8,04;1,27;20,26;50,15;3,15;19,17;9,16;11,65;50,25;55,37;50,15;-47,37;19,17;9,16;11,65;50,25;55,37;2,52;-13,01;1,43;7,91;653912
IF_IP2_R4_8502005_JAM2M_OUT_82, SUBCASE 1, Case 1 Time 1.;117;-40,72;-45,62;-17,73;-7,24;-8,37;0,72;20,19;48,09;3,01;18,75;9,59;11,93;48,19;53,45;48,09;-45,62;18,75;9,59;11,93;48,19;53,45;2,10;-12,69;1,43;7,64;653912
IF_IP2_R4_8502005_JAM2M_OUT_23, SUBCASE 1, Case 1 Time 1.;115;-40,47;-45,56;-17,60;-7,16;-8,24;1,11;18,92;47,89;3,01;17,92;9,44;11,86;47,99;53,32;47,89;-45,56;17,92;9,44;11,86;47,99;53,32;2,89;-11,97;0,99;7,62;653912
IF_IP2_R4_8502005_JAM2M_OUT_-55, SUBCASE 1, Case 1 Time 1.;116;-40,14;-45,48;-17,52;-7,05;-8,07;1,63;18,95;47,63;3,02;17,85;9,25;11,76;47,73;53,14;47,63;-45,48;17,85;9,25;11,76;47,73;53,14;3,43;-11,37;0,39;7,59;653912
IF_IP2_R4_8502005_82, SUBCASE 1, Case 1 Time 1.;9;-36,13;-41,94;-16,28;-6,12;-6,46;2,44;19,55;51,81;3,31;17,98;7,47;9,86;51,91;52,97;51,81;-41,94;17,98;7,47;9,86;51,91;52,97;4,94;-10,63;1,41;7,57;653912
IF_TO_R4_8502005_DIS3_82, SUBCASE 1, Case 1 Time 1.;66;-36,19;-41,61;-16,14;-6,53;-7,08;2,03;20,06;51,51;3,30;18,08;8,20;10,56;51,61;52,92;51,51;-41,61;18,08;8,20;10,56;51,61;52,92;4,65;-10,69;1,44;7,56;653912
IF_TO_R4_8502005_DIS3_23, SUBCASE 1, Case 1 Time 1.;64;-36,16;-41,74;-16,15;-6,52;-7,05;1,04;19,57;51,28;3,30;17,04;8,18;10,60;51,39;52,74;51,28;-41,74;17,04;8,18;10,60;51,39;52,74;5,12;-10,25;1,01;7,53;653912
IF_IP2_R4_8502005_23, SUBCASE 1, Case 1 Time 1.;7;-36,03;-42,00;-16,26;-6,08;-6,41;1,62;19,10;51,50;3,31;16,93;7,42;9,88;51,61;52,70;51,50;-42,00;16,93;7,42;9,88;51,61;52,70;5,36;-10,10;0,97;7,53;653912
IF_TO_R4_8502005_DIS3_-55, SUBCASE 1, Case 1 Time 1.;65;-36,12;-41,90;-16,15;-6,50;-7,01;2,21;20,53;50,99;3,31;16,25;8,15;10,67;51,09;52,49;50,99;-41,90;16,25;8,15;10,67;51,09;52,49;5,76;-9,57;0,41;7,50;653912
IF_IP2_R4_8502005_-55, SUBCASE 1, Case 1 Time 1.;8;-35,90;-42,07;-16,23;-6,04;-6,34;2,45;20,15;51,10;3,31;16,07;7,35;9,89;51,21;52,34;51,10;-42,07;-16,23;7,35;9,89;51,21;52,34;6,05;-9,46;0,37;7,48;653912
IF_LD_R4_8502001_JAM2M_INSF_82, SUBCASE 1, Case 1 Time 1.;129;-7,94;-15,79;-13,16;-5,56;-2,80;0,57;3,97;52,95;17,61;12,11;1,07;5,80;53,07;52,32;52,95;17,61;-13,16;-5,56;5,80;53,07;52,32;14,99;0,45;1,06;7,47;653912
IF_LD_R4_8502001_JAM2M_INSF_23, SUBCASE 1, Case 1 Time 1.;127;-7,87;-15,85;-12,62;-5,70;-2,82;0,63;5,10;52,62;17,81;9,44;1,29;5,91;52,74;52,02;52,62;17,81;-12,62;-5,70;5,91;52,74;52,02;15,45;0,94;0,62;7,43;653912
IF_TO_R4_8502005_JAM2_82, SUBCASE 1, Case 1 Time 1.;84;-28,97;-35,44;-14,49;-4,30;-3,79;1,39;16,90;51,62;3,98;16,09;4,58;6,74;51,73;51,90;51,62;-35,44;16,09;4,58;6,74;51,73;51,90;7,45;-7,82;1,30;7,41;653912
IF_TO_R4_8502005_JAM2_23, SUBCASE 1, Case 1 Time 1.;82;-28,75;-35,41;-13,96;-4,23;-3,67;1,07;17,88;51,43;4,35;14,67;4,46;6,68;51,54;51,71;51,43;-35,41;14,67;4,46;6,68;51,54;51,71;8,00;-7,31;0,86;7,39;653912
IF_TO_R4_8502005_JAM2_-55, SUBCASE 1, Case 1 Time 1.;83;-28,45;-35,36;-14,03;-4,13;-3,51;1,56;17,87;51,18;4,84;13,74;4,33;6,60;51,29;51,47;51,18;-35,36;-14,03;4,33;6,60;51,29;51,47;8,76;-6,53;0,25;7,35;653912
IF_LD_R4_8502001_JAM2M_INSF_-55, SUBCASE 1, Case 1 Time 1.;128;-8,65;-16,72;-11,80;-5,52;-2,60;0,94;7,58;51,75;17,32;8,86;1,56;5,72;51,87;51,17;51,75;17,32;-11,80;-5,52;5,72;51,87;51,17;15,63;1,21;0,01;7,31;653912
IF_LD_R2_8502001_JAM2M_INSF_82, SUBCASE 1, Case 1 Time 1.;126;-5,23;-13,19;-12,35;-6,92;-3,86;0,82;5,45;50,20;18,83;11,19;1,21;7,04;50,31;49,71;50,20;18,83;-12,35;-6,92;7,04;50,31;49,71;15,20;1,33;0,95;7,10;653912
IF_LD_R4_8502001_82, SUBCASE 1, Case 1 Time 1.;18;-28,19;-34,12;-13,93;-4,48;-4,21;1,55;16,55;49,24;3,31;15,72;5,00;7,09;49,34;49,65;49,24;-34,12;15,72;5,00;7,09;49,34;49,65;6,78;-7,70;1,29;7,09;653912
IF_LD_R2_8502001_JAM2M_INSF_23, SUBCASE 1, Case 1 Time 1.;124;-5,03;-13,15;-11,80;-7,13;-3,96;0,65;6,51;49,90;18,79;8,32;1,27;7,21;50,01;49,44;49,90;18,79;-11,80;-7,13;7,21;50,01;49,44;15,46;1,62;0,52;7,06;653912
IF_LD_R4_8502001_DIS3_82, SUBCASE 1, Case 1 Time 1.;72;-30,87;-36,57;-14,23;-5,03;-5,01;3,40;17,92;48,59;3,13;16,21;5,89;8,01;48,69;49,28;48,59;-36,57;16,21;5,89;8,01;48,69;49,28;5,67;-8,82;1,30;7,04;653912
IF_LD_R4_8502001_23, SUBCASE 1, Case 1 Time 1.;16;-28,00;-34,08;-13,36;-4,44;-4,15;1,46;17,94;48,84;3,56;14,27;4,94;7,09;48,95;49,28;48,84;-34,08;14,27;4,94;7,09;48,95;49,28;7,29;-7,14;0,85;7,04;653912
IF_TO_R4_8502005_82, SUBCASE 1, Case 1 Time 1.;12;-31,97;-37,39;-14,53;-5,46;-5,69;3,38;18,12;48,29;3,09;16,57;6,58;8,80;48,39;49,22;48,29;-37,39;16,57;6,58;8,80;48,39;49,22;5,11;-9,26;1,34;7,03;653912
IF_LD_R4_8502001_DIS3_23, SUBCASE 1, Case 1 Time 1.;70;-30,81;-36,66;-14,21;-5,01;-4,98;3,21;17,84;48,35;3,13;14,94;5,86;8,06;48,45;49,08;48,35;-36,66;14,94;5,86;8,06;48,45;49,08;6,15;-8,25;0,86;7,01;653912
IF_TO_R4_8502005_23, SUBCASE 1, Case 1 Time 1.;10;-31,87;-37,43;-14,50;-5,42;-5,63;2,73;17,79;47,97;3,09;15,34;6,53;8,81;48,07;48,94;47,97;-37,43;15,34;6,53;8,81;48,07;48,94;5,57;-8,80;0,90;6,99;653912
IF_LD_R2_8502001_JAM2M_INSF_-55, SUBCASE 1, Case 1 Time 1.;125;-4,94;-13,23;-11,05;-7,29;-3,99;0,87;7,62;49,35;19,01;7,65;1,55;7,34;49,47;48,92;49,35;19,01;-11,05;-7,29;7,34;49,47;48,92;16,27;2,51;-0,09;6,99;653912
IF_LD_R4_8502001_DIS3_-55, SUBCASE 1, Case 1 Time 1.;71;-30,72;-36,77;-14,27;-4,99;-4,94;2,35;19,45;48,03;3,57;13,96;5,83;8,11;48,13;48,80;48,03;-36,77;-14,27;5,83;8,11;48,13;48,80;6,79;-7,68;0,26;6,97;653912
IF_LD_R4_8502001_-55, SUBCASE 1, Case 1 Time 1.;17;-27,75;-34,02;-13,58;-4,38;-4,07;1,43;18,03;48,32;3,89;13,23;4,85;7,08;48,42;48,79;48,32;-34,02;-13,58;4,85;7,08;48,42;48,79;7,89;-6,47;0,24;6,97;653912
IF_TO_R4_8502005_-55, SUBCASE 1, Case 1 Time 1.;11;-31,72;-37,49;-14,57;-5,38;-5,57;2,89;19,10;47,55;3,45;14,33;6,46;8,83;47,65;48,55;47,55;-37,49;-14,57;6,46;8,83;47,65;48,55;6,21;-8,10;0,29;6,94;653912
IF_LD_R2_8502001_82, SUBCASE 1, Case 1 Time 1.;15;-21,62;-28,37;-13,39;-2,50;-1,31;1,87;11,45;48,76;7,68;13,84;1,88;3,69;48,87;48,52;48,76;-28,37;13,84;-2,50;3,69;48,87;48,52;9,11;-5,14;1,15;6,93;653912
IF_LD_R2_8502001_23, SUBCASE 1, Case 1 Time 1.;13;-21,44;-28,32;-12,81;-2,46;-1,25;3,09;11,93;48,35;7,92;12,25;2,00;3,70;48,45;48,13;48,35;-28,32;-12,81;-2,46;3,70;48,45;48,13;9,49;-4,71;0,72;6,88;653912
IF_TO_R4_8502005_JAM2M_OUT_82, SUBCASE 1, Case 1 Time 1.;123;-36,36;-41,06;-15,92;-6,39;-7,28;1,58;18,35;44,98;2,81;17,28;8,28;10,52;45,07;48,07;44,98;-41,06;17,28;8,28;10,52;45,07;48,07;2,53;-11,21;1,35;6,87;653912
IF_TO_R4_8502005_JAM2M_OUT_23, SUBCASE 1, Case 1 Time 1.;121;-36,10;-40,99;-15,85;-6,31;-7,15;1,02;17,19;44,78;2,82;16,27;8,13;10,44;44,87;47,93;44,78;-40,99;16,27;8,13;10,44;44,87;47,93;3,30;-10,50;0,91;6,85;653912
IF_TO_R4_8502005_JAM2M_OUT_-55, SUBCASE 1, Case 1 Time 1.;122;-35,75;-40,89;-15,76;-6,19;-6,98;1,23;17,58;44,51;3,31;15,97;7,94;10,34;44,60;47,74;44,51;-40,89;15,97;7,94;10,34;44,60;47,74;3,87;-9,89;0,30;6,82;653912
IF_LD_R4_8502001_JAM2_82, SUBCASE 1, Case 1 Time 1.;90;-29,53;-34,90;-13,58;-4,99;-5,08;3,15;17,46;46,98;3,02;15,81;5,91;8,01;47,07;47,71;46,98;-34,90;15,81;5,91;8,01;47,07;47,71;5,49;-8,40;1,29;6,82;653912
IF_LD_R2_8502001_-55, SUBCASE 1, Case 1 Time 1.;14;-21,18;-28,25;-12,04;-2,40;-1,18;2,91;12,55;47,79;8,23;11,53;2,16;3,70;47,90;47,61;47,79;-28,25;-12,04;-2,40;3,70;47,90;47,61;10,20;-3,92;0,10;6,80;653912
IF_LD_R4_8502001_JAM2_23, SUBCASE 1, Case 1 Time 1.;88;-29,19;-34,73;-13,48;-4,90;-4,94;2,80;17,27;46,63;3,01;14,40;5,77;7,92;46,73;47,36;46,63;-34,73;14,40;5,77;7,92;46,73;47,36;6,03;-7,80;0,85;6,77;653912
IF_LD_R4_8502001_JAM2_-55, SUBCASE 1, Case 1 Time 1.;89;-28,75;-34,51;-13,61;-4,78;-4,76;2,09;18,82;46,17;3,65;13,29;5,57;7,80;46,27;46,90;46,17;-34,51;-13,61;5,57;7,80;46,27;46,90;6,76;-7,03;0,24;6,70;653912
IF_LD_R2_8502001_FS11_82, SUBCASE 1, Case 1 Time 1.;33;-2,63;-4,29;-7,53;-13,68;-11,19;7,87;13,73;37,70;32,34;5,96;5,57;12,79;37,89;45,96;37,70;32,34;-7,53;-13,68;12,79;37,89;45,96;16,45;8,11;0,49;6,57;653971
IF_IP1_R1_8502005_JAM2M_OUT_-55, SUBCASE 1, Case 1 Time 1.;110;-35,79;-37,65;-14,85;-6,54;-8,89;1,18;14,26;21,95;3,81;15,50;10,18;11,31;38,31;44,14;-35,79;-37,65;15,50;10,18;11,31;38,31;44,14;-3,68;-11,65;0,00;6,31;654006
IF_IP1_R1_8502005_JAM2M_OUT_23, SUBCASE 1, Case 1 Time 1.;109;-35,98;-37,57;-15,01;-6,61;-9,16;0,49;16,54;22,07;1,22;15,35;10,32;11,44;38,25;44,14;-35,98;-37,57;15,35;10,32;11,44;38,25;44,14;-4,37;-12,14;0,60;6,31;654006
IF_IP1_R1_8502005_JAM2M_OUT_82, SUBCASE 1, Case 1 Time 1.;111;-36,12;-37,51;-15,13;-6,67;-9,36;0,71;18,22;22,16;1,20;15,23;10,43;11,54;38,19;44,13;-36,12;-37,51;15,23;10,43;11,54;38,19;44,13;-4,99;-12,89;1,04;6,30;654006
IF_LD_R2_8502001_JAM2_82, SUBCASE 1, Case 1 Time 1.;87;-24,31;-29,52;-12,06;-3,69;-3,43;1,27;13,73;42,24;2,91;13,82;4,01;5,87;42,33;42,53;42,24;-29,52;13,82;4,01;5,87;42,33;42,53;5,79;-6,70;1,15;6,08;653912
IF_LD_R2_8502001_FS11_23, SUBCASE 1, Case 1 Time 1.;31;-0,84;-1,05;-7,60;-13,77;-11,30;8,82;13,88;36,06;30,40;6,14;5,62;12,98;36,06;42,30;36,06;30,40;-7,60;-13,77;12,98;36,06;42,30;16,72;8,48;0,06;6,04;653971
IF_LD_R2_8502001_JAM2_23, SUBCASE 1, Case 1 Time 1.;85;-24,02;-29,40;-11,50;-3,61;-3,31;1,15;15,11;41,91;3,26;12,23;3,89;5,80;42,00;42,21;41,91;-29,40;12,23;3,89;5,80;42,00;42,21;6,35;-6,17;0,72;6,03;653912
IF_LD_R2_8502001_JAM2_-55, SUBCASE 1, Case 1 Time 1.;86;-23,63;-29,23;-11,94;-3,51;-3,15;1,18;15,15;41,48;4,14;11,24;3,73;5,71;41,57;41,79;41,48;-29,23;-11,94;3,73;5,71;41,57;41,79;7,04;-5,37;0,10;5,97;653912
IF_LD_R2_8502001_FS11_-55, SUBCASE 1, Case 1 Time 1.;32;0,08;-0,52;-7,70;-13,90;-11,45;8,81;14,08;34,30;28,28;6,39;5,70;13,24;34,55;40,75;34,30;28,28;-7,70;-13,90;13,24;34,55;40,75;17,70;9,40;-0,55;5,82;653915
IF_IP1_R1_8502005_-55, SUBCASE 1, Case 1 Time 1.;5;-27,59;-32,32;-12,45;-3,99;-4,18;1,10;12,37;34,52;4,24;12,16;4,65;6,65;34,59;37,46;34,52;-32,32;-12,45;4,65;6,65;34,59;37,46;3,58;-7,46;0,01;5,35;653974
IF_IP1_R1_8502005_JAM2_82, SUBCASE 1, Case 1 Time 1.;78;-26,76;-31,51;-12,26;-3,71;-3,67;1,97;13,31;36,79;2,31;13,42;4,14;5,96;36,86;37,28;36,79;-31,51;13,42;4,14;5,96;36,86;37,28;3,40;-8,08;1,05;5,33;653912
IF_IP1_R1_8502005_JAM2_23, SUBCASE 1, Case 1 Time 1.;76;-26,70;-31,65;-12,27;-3,66;-3,59;1,27;12,76;36,77;2,33;12,10;4,06;5,95;36,84;37,27;36,77;-31,65;-12,27;4,06;5,95;36,84;37,27;3,93;-7,81;0,63;5,32;653912
IF_IP1_R1_8502005_JAM2_-55, SUBCASE 1, Case 1 Time 1.;77;-26,60;-31,83;-12,28;-3,60;-3,47;2,36;13,31;36,74;4,31;11,74;3,94;5,93;36,81;37,26;36,74;-31,83;-12,28;3,94;5,93;36,81;37,26;4,72;-6,90;0,01;5,32;653912
IF_IP1_R1_8502005_23, SUBCASE 1, Case 1 Time 1.;4;-27,58;-32,09;-12,42;-4,01;-4,22;0,26;12,22;34,79;2,18;12,16;4,69;6,59;34,86;37,26;34,79;-32,09;-12,42;4,69;6,59;34,86;37,26;2,91;-8,31;0,63;5,32;653974
IF_IP1_R1_8502005_82, SUBCASE 1, Case 1 Time 1.;6;-27,57;-31,91;-12,40;-4,02;-4,24;0,91;13,20;34,99;2,18;13,43;4,72;6,55;35,06;37,10;34,99;-31,91;13,43;4,72;6,55;35,06;37,10;2,47;-8,54;1,04;5,30;653974
IF_LD_R2_8502001_DIS3_82, SUBCASE 1, Case 1 Time 1.;69;-16,03;-21,03;-9,71;-1,57;-0,74;1,15;7,44;34,78;5,29;10,82;0,95;2,29;34,86;34,58;34,78;-21,03;10,82;-1,57;2,29;34,86;34,58;6,31;-4,03;0,92;4,94;653912
IF_LD_R2_8502001_DIS3_23, SUBCASE 1, Case 1 Time 1.;67;-15,99;-21,14;-9,19;-1,56;-0,74;2,32;8,73;34,54;5,50;8,86;1,11;2,34;34,61;34,35;34,54;-21,14;-9,19;-1,56;2,34;34,61;34,35;6,74;-3,68;0,49;4,91;653912
IF_LD_R2_8502001_DIS3_-55, SUBCASE 1, Case 1 Time 1.;68;-15,92;-21,28;-9,79;-1,55;-0,78;2,16;9,59;34,20;5,79;8,22;1,31;2,41;34,27;34,05;34,20;-21,28;-9,79;-1,55;2,41;34,27;34,05;7,41;-2,90;-0,12;4,86;653912
IF_CR_R1_8501009_FS11_-55, SUBCASE 1, Case 1 Time 1.;20;-21,59;-23,70;-8,60;-4,97;-7,97;1,08;11,02;5,97;4,69;9,33;8,95;8,90;24,44;30,68;-21,59;-23,70;9,33;8,95;8,90;24,44;30,68;-6,06;-7,71;-0,32;4,38;653982
IF_LD_R2_8502001_DIS1_INSF_-55, SUBCASE 1, Case 1 Time 1.;50;-12,83;-17,46;-8,80;-1,15;-0,71;1,76;8,03;29,03;5,49;6,90;0,98;1,80;29,09;28,89;29,03;-17,46;-8,80;-1,15;1,80;29,09;28,89;6,62;-2,06;-0,19;4,13;653912
IF_LD_R2_8502001_DIS1_INSF_82, SUBCASE 1, Case 1 Time 1.;51;-12,65;-16,82;-8,29;-1,17;-0,59;1,83;5,19;29,04;4,88;9,57;0,58;1,68;29,10;28,84;29,04;-16,82;9,57;-1,17;1,68;29,10;28,84;5,41;-3,12;0,85;4,12;653912
IF_LD_R2_8502001_DIS1_INSF_23, SUBCASE 1, Case 1 Time 1.;49;-12,69;-17,04;-7,81;-1,16;-0,64;1,82;6,65;28,96;5,13;7,40;0,72;1,73;29,03;28,79;28,96;-17,04;-7,81;-1,16;1,73;29,03;28,79;5,83;-2,66;0,41;4,11;653912
IF_CR_R1_8501009_FS11_82, SUBCASE 1, Case 1 Time 1.;21;-21,58;-20,17;-8,79;-4,95;-8,09;0,49;10,99;2,83;0,49;8,91;8,85;8,83;21,58;25,51;-21,58;-20,17;8,91;8,85;8,83;21,58;25,51;-7,01;-8,76;0,72;3,64;653909
IF_CR_R1_8501009_FS11_23, SUBCASE 1, Case 1 Time 1.;19;-21,58;-20,73;-8,71;-4,96;-8,04;0,66;11,00;2,45;0,74;9,09;8,90;8,86;21,59;25,51;-21,58;-20,73;9,09;8,90;8,86;21,59;25,51;-6,36;-8,30;0,30;3,64;653909
IF_IP1_R1_8502005_DIS3_82, SUBCASE 1, Case 1 Time 1.;60;-17,33;-20,58;-8,03;-2,15;-2,01;1,72;9,01;24,07;1,50;9,46;2,23;3,43;24,11;24,26;24,07;-20,58;9,46;2,23;3,43;24,11;24,26;2,22;-5,37;0,81;3,47;653912
IF_IP1_R1_8502005_DIS3_-55, SUBCASE 1, Case 1 Time 1.;59;-17,36;-20,99;-9,16;-2,12;-1,96;1,45;7,12;23,54;5,04;7,69;2,22;3,55;23,59;24,22;23,54;-20,99;-9,16;2,22;3,55;23,59;24,22;3,31;-4,30;-0,23;3,46;653912
IF_IP1_R1_8502005_DIS3_23, SUBCASE 1, Case 1 Time 1.;58;-17,35;-20,76;-8,06;-2,14;-1,99;1,02;8,11;23,85;1,50;7,78;2,21;3,48;23,89;24,07;23,85;-20,76;-8,06;2,21;3,48;23,89;24,07;2,68;-5,06;0,38;3,44;653912
IF_IP1_R1_8502005_DIS1_-55, SUBCASE 1, Case 1 Time 1.;41;-17,18;-20,73;-9,06;-2,10;-1,94;1,52;6,87;23,01;5,06;7,59;2,20;3,50;23,06;23,92;23,01;-20,73;-9,06;2,20;3,50;23,06;23,92;3,19;-4,27;-0,24;3,42;653970
IF_IP1_R1_8502005_DIS1_82, SUBCASE 1, Case 1 Time 1.;42;-17,10;-20,28;-7,91;-2,11;-1,98;1,59;8,86;23,50;1,46;9,30;2,20;3,36;23,55;23,69;23,50;-20,28;9,30;2,20;3,36;23,55;23,69;2,11;-5,33;0,79;3,38;653912
IF_IP1_R1_8502005_DIS1_23, SUBCASE 1, Case 1 Time 1.;40;-17,14;-20,48;-7,94;-2,11;-1,96;0,87;7,92;23,29;1,46;7,62;2,19;3,42;23,34;23,69;23,29;-20,48;-7,94;2,19;3,42;23,34;23,69;2,56;-5,04;0,37;3,38;653970
IF_LD_R4_8502001_FS11_82, SUBCASE 1, Case 1 Time 1.;36;-2,69;-4,77;-5,12;-5,07;-3,72;0,16;3,90;20,88;13,34;5,89;1,65;4,92;20,94;23,48;20,88;13,34;5,89;-5,07;4,92;20,94;23,48;7,54;1,90;0,58;3,35;653970
IF_LD_R4_8502001_FS11_23, SUBCASE 1, Case 1 Time 1.;34;-0,42;-1,65;-4,58;-5,19;-3,84;0,10;3,92;20,63;11,40;2,45;1,71;5,11;20,68;20,78;20,63;11,40;-4,58;-5,19;5,11;20,68;20,78;8,22;2,56;0,14;2,97;653912
IF_LD_R4_8502001_FS11_-55, SUBCASE 1, Case 1 Time 1.;35;-0,38;-1,55;-5,03;-5,49;-3,99;0,11;3,95;20,29;11,18;2,52;1,80;5,37;20,34;20,49;20,29;11,18;-5,03;-5,49;5,37;20,34;20,49;8,79;3,21;-0,47;2,93;653912
IF_IP1_R1_8502005_FS11_-55, SUBCASE 1, Case 1 Time 1.;23;-12,92;-14,08;-5,71;-2,49;-4,18;0,75;5,55;5,89;5,47;4,86;4,67;4,55;15,26;19,26;-12,92;-14,08;-5,71;4,67;4,55;15,26;19,26;-3,29;-3,74;-0,48;2,75;653982
IF_LD_R4_8502001_DIS1_INSF_82, SUBCASE 1, Case 1 Time 1.;54;-9,31;-11,62;-5,79;-1,31;-1,00;0,68;3,39;18,78;2,21;7,72;1,21;2,06;18,82;18,78;18,78;-11,62;7,72;-1,31;2,06;18,82;18,78;2,78;-2,61;0,76;2,68;653912
IF_LD_R4_8502001_DIS1_INSF_23, SUBCASE 1, Case 1 Time 1.;52;-9,29;-11,76;-5,27;-1,29;-0,98;0,63;5,42;18,54;2,42;5,25;1,18;2,11;18,58;18,56;18,54;-11,76;-5,27;-1,29;2,11;18,58;18,56;3,28;-2,16;0,33;2,65;653912
IF_LD_R4_8502001_DIS1_INSF_-55, SUBCASE 1, Case 1 Time 1.;53;-9,27;-11,95;-7,19;-1,28;-0,94;0,39;5,60;18,22;5,35;4,70;1,38;2,17;18,26;18,28;18,22;-11,95;-7,19;1,38;2,17;18,26;18,28;3,87;-1,51;-0,28;2,61;653912
IF_TO_R4_8502005_FS11_82, SUBCASE 1, Case 1 Time 1.;30;-4,06;-6,04;-4,03;-0,92;-0,45;0,33;1,72;14,27;4,26;6,00;0,11;1,03;14,31;14,94;14,27;-6,04;6,00;-0,92;1,03;14,31;14,94;3,07;-0,97;0,61;2,13;653970
IF_IP2_R4_8502005_FS11_82, SUBCASE 1, Case 1 Time 1.;27;-5,46;-7,17;-3,85;-0,59;-0,28;0,79;2,19;13,16;2,38;6,06;0,37;0,77;13,18;13,82;13,16;-7,17;6,06;-0,59;0,77;13,18;13,82;2,21;-1,60;0,61;1,97;653970
IF_TO_R4_8502005_FS11_23, SUBCASE 1, Case 1 Time 1.;28;-3,93;-6,05;-3,47;-1,08;-0,45;0,13;1,94;13,92;3,67;2,92;0,33;1,16;13,95;13,78;13,92;-6,05;-3,47;-1,08;1,16;13,95;13,78;3,51;-0,49;0,18;1,97;653912
IF_IP1_R1_8502005_FS11_23, SUBCASE 1, Case 1 Time 1.;22;-11,04;-11,13;-4,45;-2,48;-4,27;0,27;5,40;0,89;0,36;4,63;4,63;4,53;11,13;13,48;-11,04;-11,13;4,63;4,63;4,53;11,13;13,48;-3,90;-4,44;0,13;1,93;653971
IF_TO_R4_8502005_FS11_-55, SUBCASE 1, Case 1 Time 1.;29;-3,76;-6,07;-5,46;-1,30;-0,78;0,35;2,79;13,46;5,80;2,45;0,63;1,33;13,49;13,34;13,46;-6,07;-5,46;-1,30;1,33;13,49;13,34;4,16;0,21;-0,43;1,91;653912
IF_TO_R4_8502005_DIS1_82, SUBCASE 1, Case 1 Time 1.;48;-7,02;-8,35;-3,81;-1,14;-1,07;0,36;3,11;12,30;0,78;6,26;1,26;1,77;12,32;13,25;12,30;-8,35;6,26;1,26;1,77;12,32;13,25;1,31;-2,28;0,64;1,89;653970
IF_IP1_R1_8502005_FS11_82, SUBCASE 1, Case 1 Time 1.;24;-11,06;-10,27;-4,54;-2,48;-4,34;0,18;5,31;0,15;0,22;5,12;4,61;4,51;11,06;13,06;-11,06;-10,27;5,12;4,61;4,51;11,06;13,06;-4,25;-4,81;0,56;1,87;653909
IF_TO_R4_8502005_DIS1_-55, SUBCASE 1, Case 1 Time 1.;47;-7,07;-8,75;-6,00;-1,13;-1,05;0,37;4,09;11,71;5,55;3,38;1,39;1,92;11,74;12,77;11,71;-8,75;-6,00;1,39;1,92;11,74;12,77;2,36;-1,21;-0,39;1,82;654006
IF_IP2_R4_8502005_FS11_23, SUBCASE 1, Case 1 Time 1.;25;-5,38;-7,22;-3,29;-0,58;-0,32;0,69;2,98;12,77;2,25;3,08;0,46;0,82;12,80;12,69;12,77;-7,22;-3,29;-0,58;0,82;12,80;12,69;2,52;-1,19;0,18;1,81;653912
IF_IP2_R4_8502005_DIS1_-55, SUBCASE 1, Case 1 Time 1.;44;-6,96;-8,55;-5,87;-1,06;-0,98;0,22;3,71;10,66;5,61;3,27;1,32;1,79;10,69;12,64;10,66;-8,55;-5,87;1,32;1,79;10,69;12,64;2,08;-1,26;-0,42;1,81;654006
IF_IP2_R4_8502005_DIS1_82, SUBCASE 1, Case 1 Time 1.;45;-6,80;-8,03;-3,47;-1,05;-0,98;0,57;3,22;11,11;0,70;6,01;1,17;1,61;11,14;12,51;11,11;-8,03;6,01;1,17;1,61;11,14;12,51;1,01;-2,29;0,62;1,79;653970
IF_IP2_R4_8502005_FS11_-55, SUBCASE 1, Case 1 Time 1.;26;-5,28;-7,30;-5,67;-0,64;-0,52;0,63;3,77;12,25;5,72;2,62;0,66;0,88;12,28;12,21;12,25;-7,30;-5,67;0,66;0,88;12,28;12,21;3,23;-0,48;-0,43;1,74;653912
IF_TO_R4_8502005_DIS1_23, SUBCASE 1, Case 1 Time 1.;46;-7,04;-8,52;-3,30;-1,14;-1,06;0,40;4,51;12,04;0,82;3,53;1,25;1,83;12,07;12,15;12,04;-8,52;3,53;1,25;1,83;12,07;12,15;1,74;-1,83;0,21;1,74;653912
IF_IP2_R4_8502005_DIS1_23, SUBCASE 1, Case 1 Time 1.;43;-6,87;-8,25;-3,19;-1,06;-0,98;0,61;4,06;10,92;0,70;3,26;1,17;1,69;10,94;11,03;10,92;-8,25;3,26;1,17;1,69;10,94;11,03;1,48;-1,92;0,19;1,58;653912
IF_LD_JAM2M_IN_-55, SUBCASE 1, Case 1 Time 1.;107;-4,27;-3,56;-4,80;-0,32;-0,37;0,08;0,46;5,74;6,19;1,17;0,42;0,37;7,51;10,15;5,74;6,19;-4,80;0,42;-0,37;7,51;10,15;-0,02;0,56;-0,61;1,45;653970
IF_TO_JAM2M_OUT_-55, SUBCASE 1, Case 1 Time 1.;104;-3,18;-2,65;-4,74;-0,42;-0,51;0,18;0,36;5,85;6,23;0,96;0,28;0,18;7,00;9,50;5,85;6,23;-4,74;-0,42;-0,51;7,00;9,50;0,50;0,82;-0,61;1,36;653970
IF_IP1_JAM2M_OUT_-55, SUBCASE 1, Case 1 Time 1.;92;-2,97;-2,52;-4,69;-0,43;-0,53;0,14;0,35;5,88;6,23;0,89;0,28;0,25;6,90;9,31;5,88;6,23;-4,69;-0,43;-0,53;6,90;9,31;0,62;0,82;-0,61;1,33;653970
IF_IP2_JAM2M_OUT_-55, SUBCASE 1, Case 1 Time 1.;98;-3,33;-3,05;-4,53;-0,41;-0,46;0,06;0,14;5,92;6,19;0,75;0,29;0,16;7,03;9,19;5,92;6,19;-4,53;-0,41;-0,46;7,03;9,19;0,51;0,58;-0,60;1,31;653970
IF_TO_JAM2M_IN_-55, SUBCASE 1, Case 1 Time 1.;101;-2,48;-2,42;-4,40;-0,47;-0,55;0,08;0,18;6,01;6,18;0,51;0,32;0,33;6,66;8,59;6,01;6,18;-4,40;-0,47;-0,55;6,66;8,59;0,94;0,73;-0,59;1,23;653970
IF_IP2_JAM2M_IN_-55, SUBCASE 1, Case 1 Time 1.;95;-1,91;-2,09;-4,26;-0,57;-0,61;0,03;0,28;6,11;6,18;0,32;0,35;0,53;6,47;8,13;6,11;6,18;-4,26;-0,57;-0,61;6,47;8,13;1,25;0,76;-0,59;1,16;653970
IF_IP2_JAM2M_IN_82, SUBCASE 1, Case 1 Time 1.;96;-4,30;-4,68;-0,99;-0,48;-0,37;0,04;0,42;3,78;3,15;3,67;0,21;0,38;6,02;8,09;-4,30;-4,68;3,67;-0,48;0,38;6,02;8,09;0,30;-0,29;0,45;1,16;653970
IF_TO_JAM2M_IN_82, SUBCASE 1, Case 1 Time 1.;102;-4,40;-4,68;-0,77;-0,31;-0,27;0,09;0,21;3,25;2,84;3,53;0,25;0,27;5,69;7,53;-4,40;-4,68;3,53;-0,31;0,27;5,69;7,53;0,00;-0,32;0,45;1,08;653970
IF_IP2_JAM2M_OUT_82, SUBCASE 1, Case 1 Time 1.;99;-4,47;-4,68;-0,57;-0,22;-0,14;0,04;0,07;2,24;1,99;3,46;0,32;0,38;5,19;6,87;-4,47;-4,68;3,46;0,32;0,38;5,19;6,87;-0,49;-0,56;0,44;0,98;653970
IF_IP1_JAM2M_OUT_82, SUBCASE 1, Case 1 Time 1.;93;-4,54;-4,63;-0,47;-0,31;-0,31;0,06;0,30;2,65;2,66;3,22;0,29;0,30;5,33;6,68;-4,54;-4,63;3,22;-0,31;-0,31;5,33;6,68;-0,38;-0,24;0,43;0,95;653970
IF_TO_JAM2M_OUT_82, SUBCASE 1, Case 1 Time 1.;105;-4,55;-4,64;-0,41;-0,24;-0,21;0,03;0,25;2,41;2,44;3,23;0,31;0,33;5,23;6,56;-4,55;-4,64;3,23;0,31;0,33;5,23;6,56;-0,49;-0,30;0,43;0,94;653970
IF_LD_JAM2M_IN_82, SUBCASE 1, Case 1 Time 1.;108;-4,66;-4,67;-0,33;-0,26;-0,35;0,05;0,26;1,62;1,84;3,14;0,38;0,43;5,01;6,10;-4,66;-4,67;3,14;0,38;0,43;5,01;6,10;-0,88;-0,44;0,43;0,87;654006
IF_IP2_JAM2M_IN_23, SUBCASE 1, Case 1 Time 1.;94;-0,06;-0,35;-0,44;-0,45;-0,32;0,01;0,35;1,94;0,90;0,27;0,15;0,44;1,94;1,95;1,94;0,90;-0,44;-0,45;0,44;1,94;1,95;0,69;0,15;0,02;0,28;653912
IF_LD_JAM2M_IN_23, SUBCASE 1, Case 1 Time 1.;106;-1,70;-0,61;-0,32;-0,10;-0,32;0,02;0,38;0,31;0,67;0,43;0,33;0,22;1,70;1,69;-1,70;0,67;0,43;0,33;-0,32;1,70;1,69;-0,51;-0,02;0,00;0,24;653912
IF_TO_JAM2M_IN_23, SUBCASE 1, Case 1 Time 1.;100;-0,02;-0,05;-0,22;-0,26;-0,19;0,01;0,18;1,00;0,58;0,11;0,09;0,26;1,01;1,01;1,00;0,58;-0,22;-0,26;0,26;1,01;1,01;0,39;0,11;0,01;0,14;653912
IF_TO_JAM2M_OUT_23, SUBCASE 1, Case 1 Time 1.;103;-0,74;-0,04;-0,26;-0,09;-0,15;0,00;0,25;0,59;0,68;0,26;0,08;0,09;0,75;0,79;-0,74;0,68;-0,26;-0,09;-0,15;0,75;0,79;-0,07;0,16;0,00;0,11;653970
IF_IP1_JAM2M_OUT_23, SUBCASE 1, Case 1 Time 1.;91;-0,48;-0,03;-0,29;-0,18;-0,23;0,03;0,29;0,64;0,65;0,28;0,12;0,16;0,67;0,77;0,64;0,65;-0,29;-0,18;-0,23;0,67;0,77;0,15;0,05;0,01;0,11;653912
IF_IP2_JAM2M_OUT_23, SUBCASE 1, Case 1 Time 1.;97;-0,19;-0,20;-0,08;-0,02;-0,04;0,02;0,07;0,01;0,00;0,07;0,05;0,03;0,20;0,23;-0,19;-0,20;-0,08;0,05;-0,04;0,20;0,23;-0,06;-0,08;0,01;0,03;653970
Ref CID;Coord Material;;;;;;;;;;;;;;;;;;;;;;;;;;
