LC_Name;LC_ID;qxMin;qyMin;qxyMin;qxzMin;qyzMin;qshearMin;qvonmisesMin;qxMax;qyMax;qxyMax;qxzMax;qyzMax;qshearMax;qvonmisesMax;qxAbsMax;qyAbsMax;qxyAbsMax;qxzAbsMax;qyzAbsMax;qshearAbsMax;qvonmisesAbsMax;qxAverage;qyAverage;qxyAverage;sigmaVonMisesMax;CriticalElemID
IF_CR_R1_8501009_-55, SUBCASE 1, Case 1 Time 1.;2;-36,61;-49,40;-30,08;-20,56;-22,03;1,63;4,56;46,08;27,16;39,16;21,49;16,80;67,56;96,10;46,08;-49,40;39,16;21,49;-22,03;67,56;96,10;-1,37;7,13;4,44;7,52;653981
IF_CR_R1_8501009_JAM2_-55, SUBCASE 1, Case 1 Time 1.;74;-34,50;-46,69;-29,94;-19,32;-20,29;3,00;4,61;45,26;26,12;38,88;19,77;16,32;65,03;92,51;45,26;-46,69;38,88;19,77;-20,29;65,03;92,51;-1,06;7,78;4,49;7,24;653981
IF_CR_R1_8501009_82, SUBCASE 1, Case 1 Time 1.;3;-28,44;-33,35;-21,98;-21,24;-22,99;10,82;14,57;14,37;13,27;38,96;22,35;17,04;33,96;81,24;-28,44;-33,35;38,96;22,35;-22,99;33,96;81,24;-0,15;-14,91;0,76;6,36;653974
IF_CR_R1_8501009_JAM2_82, SUBCASE 1, Case 1 Time 1.;75;-26,86;-31,30;-22,48;-20,29;-21,65;9,55;14,03;13,88;13,36;38,92;21,04;16,19;31,83;80,56;-26,86;-31,30;38,92;21,04;-21,65;31,83;80,56;0,08;-14,41;0,80;6,31;653974
IF_CR_R1_8501009_23, SUBCASE 1, Case 1 Time 1.;1;-31,96;-40,26;-20,28;-20,95;-22,57;1,95;7,09;23,51;11,49;30,93;21,98;16,63;46,62;77,60;-31,96;-40,26;30,93;21,98;-22,57;46,62;77,60;-0,64;-5,47;2,23;6,07;653981
IF_LD_R2_8502001_FS11_82, SUBCASE 1, Case 1 Time 1.;33;-26,40;-30,94;-16,61;-18,83;-11,86;0,20;2,18;47,14;40,97;15,71;13,71;19,29;56,39;76,21;47,14;40,97;-16,61;-18,83;19,29;56,39;76,21;4,58;-0,83;-0,71;5,97;653975
IF_CR_R1_8501009_JAM2_23, SUBCASE 1, Case 1 Time 1.;73;-30,15;-37,93;-20,16;-19,87;-21,07;1,34;6,31;22,80;11,05;30,90;20,49;15,73;44,26;74,70;-30,15;-37,93;30,90;20,49;-21,07;44,26;74,70;-0,34;-5,23;2,27;5,85;653981
IF_IP2_R4_8502005_JAM2M_IN_82, SUBCASE 1, Case 1 Time 1.;114;-13,41;-27,59;-21,12;-6,37;-5,99;2,38;4,68;37,65;15,67;25,18;3,04;6,25;45,66;70,86;37,65;-27,59;25,18;-6,37;6,25;45,66;70,86;3,67;-4,91;0,32;5,55;653974
IF_IP1_R1_8502005_JAM2M_OUT_-55, SUBCASE 1, Case 1 Time 1.;110;-28,40;-38,45;-19,99;-11,45;-13,24;1,28;4,16;35,76;28,96;24,69;12,75;9,56;52,51;68,80;35,76;-38,45;24,69;12,75;-13,24;52,51;68,80;-2,34;7,40;2,79;5,39;653981
IF_CR_R1_8501009_DIS1_-55, SUBCASE 1, Case 1 Time 1.;38;-24,36;-33,30;-23,30;-10,36;-10,27;4,62;7,62;36,73;24,70;29,14;9,82;9,76;49,58;67,57;36,73;-33,30;29,14;-10,36;-10,27;49,58;67,57;-0,93;9,52;3,56;5,29;654005
IF_LD_R2_8502001_JAM2M_INSF_82, SUBCASE 1, Case 1 Time 1.;126;-18,71;-28,53;-18,75;-10,53;-7,72;0,67;3,30;38,99;25,69;20,42;6,02;10,61;48,31;67,34;38,99;-28,53;20,42;-10,53;10,61;48,31;67,34;3,94;-3,39;-0,16;5,27;653974
IF_CR_R1_8501009_DIS3_-55, SUBCASE 1, Case 1 Time 1.;56;-23,34;-32,19;-23,31;-10,28;-10,07;3,99;8,07;36,61;24,32;29,28;9,62;9,79;48,75;67,00;36,61;-32,19;29,28;-10,28;-10,07;48,75;67,00;-0,78;9,82;3,65;5,24;654005
IF_LD_R4_8502001_JAM2M_INSF_82, SUBCASE 1, Case 1 Time 1.;129;-17,53;-28,12;-19,04;-8,71;-6,88;1,19;3,13;37,95;23,57;21,13;4,42;8,76;47,12;66,98;37,95;-28,12;21,13;-8,71;8,76;47,12;66,98;3,87;-3,72;-0,05;5,24;653974
IF_TO_R4_8502005_JAM2M_IN_INSF_82, SUBCASE 1, Case 1 Time 1.;120;-14,50;-27,06;-19,72;-6,43;-5,84;2,44;4,76;35,06;16,93;23,43;2,63;6,33;43,15;66,66;35,06;-27,06;23,43;-6,43;6,33;43,15;66,66;3,52;-4,86;0,24;5,22;653974
IF_IP2_R4_8502005_JAM2M_OUT_-55, SUBCASE 1, Case 1 Time 1.;116;-22,46;-31,30;-22,69;-10,40;-10,35;3,27;8,06;36,19;24,44;28,58;9,90;9,73;47,84;65,62;36,19;-31,30;28,58;-10,40;-10,35;47,84;65,62;-0,77;9,95;3,62;5,14;654005
IF_IP2_R4_8502005_DIS3_-55, SUBCASE 1, Case 1 Time 1.;62;-20,09;-28,43;-23,47;-10,24;-9,59;2,37;10,35;36,25;22,80;29,75;9,18;10,37;46,07;65,60;36,25;-28,43;29,75;-10,24;10,37;46,07;65,60;-0,19;10,93;3,91;5,13;654005
IF_IP2_R4_8502005_DIS3_82, SUBCASE 1, Case 1 Time 1.;63;-17,62;-19,61;-19,09;-10,91;-10,52;4,09;11,01;13,51;11,82;29,93;10,03;8,95;21,87;61,76;-17,62;-19,61;29,93;-10,91;-10,52;21,87;61,76;1,03;-11,12;0,23;4,83;653974
IF_TO_R4_8502005_JAM2M_OUT_-55, SUBCASE 1, Case 1 Time 1.;122;-19,63;-27,81;-21,43;-8,92;-8,64;1,84;9,33;34,56;23,84;26,88;8,22;8,75;44,36;60,81;34,56;-27,81;26,88;-8,92;8,75;44,36;60,81;-0,60;10,56;3,53;4,76;654005
IF_TO_R4_8502005_DIS3_-55, SUBCASE 1, Case 1 Time 1.;65;-17,72;-25,46;-21,84;-8,74;-8,02;1,18;11,33;34,44;22,61;27,50;7,65;9,21;42,82;60,39;34,44;-25,46;27,50;-8,74;9,21;42,82;60,39;-0,16;11,32;3,72;4,73;654005
IF_CR_R1_8501009_FS11_-55, SUBCASE 1, Case 1 Time 1.;20;-29,38;-32,69;-15,04;-9,43;-11,86;1,53;5,28;31,47;29,81;18,10;11,52;7,83;45,38;60,04;31,47;-32,69;18,10;11,52;-11,86;45,38;60,04;-2,60;7,86;2,17;4,70;653981
IF_IP2_R4_8502005_-55, SUBCASE 1, Case 1 Time 1.;8;-17,40;-24,88;-21,88;-7,91;-6,95;1,24;11,76;34,12;22,31;27,40;6,58;8,72;42,23;59,65;34,12;-24,88;27,40;-7,91;8,72;42,23;59,65;-0,11;11,43;3,70;4,67;654005
IF_LD_R2_8502001_FS11_23, SUBCASE 1, Case 1 Time 1.;31;-9,43;-13,12;-9,58;-19,30;-12,43;9,75;11,67;40,25;34,31;13,23;14,08;19,77;42,33;59,01;40,25;34,31;13,23;-19,30;19,77;42,33;59,01;4,00;7,96;0,77;4,62;653975
IF_IP2_R4_8502005_JAM2_82, SUBCASE 1, Case 1 Time 1.;81;-15,61;-21,31;-19,07;-5,90;-4,20;1,55;9,19;19,78;11,58;27,08;4,92;6,15;27,97;58,89;19,78;-21,31;27,08;-5,90;6,15;27,97;58,89;1,72;-9,27;0,10;4,61;653974
IF_CR_R1_8501009_DIS3_82, SUBCASE 1, Case 1 Time 1.;57;-18,90;-20,88;-18,15;-10,95;-11,00;4,48;12,45;10,94;11,45;28,64;10,48;8,77;22,70;57,88;-18,90;-20,88;28,64;-10,95;-11,00;22,70;57,88;0,44;-12,21;-0,03;4,53;653974
IF_TO_R4_8502005_DIS3_82, SUBCASE 1, Case 1 Time 1.;66;-17,37;-19,17;-18,32;-9,40;-8,91;3,31;10,79;13,25;11,34;27,58;8,48;7,77;21,86;57,38;-17,37;-19,17;27,58;-9,40;-8,91;21,86;57,38;1,06;-10,72;0,04;4,49;653974
IF_IP2_R4_8502005_82, SUBCASE 1, Case 1 Time 1.;9;-17,21;-19,22;-18,42;-8,63;-7,92;3,46;10,75;13,91;11,39;27,49;7,49;7,34;22,53;57,18;-17,21;-19,22;27,49;-8,63;-7,92;22,53;57,18;1,10;-10,62;0,03;4,48;653974
IF_IP2_R4_8502005_JAM2M_OUT_82, SUBCASE 1, Case 1 Time 1.;117;-19,05;-20,83;-17,81;-11,38;-11,66;4,93;12,41;11,03;11,25;28,17;11,13;9,01;23,00;57,15;-19,05;-20,83;28,17;-11,38;-11,66;23,00;57,15;0,39;-12,23;-0,06;4,47;653974
IF_CR_R1_8501009_DIS1_82, SUBCASE 1, Case 1 Time 1.;39;-19,21;-21,28;-17,99;-11,00;-11,15;4,95;13,03;11,11;11,40;28,31;10,64;8,90;23,11;57,06;-19,21;-21,28;28,31;-11,00;-11,15;23,11;57,06;0,28;-12,51;-0,12;4,47;653974
IF_TO_R4_8502005_JAM2_82, SUBCASE 1, Case 1 Time 1.;84;-15,37;-21,49;-18,53;-5,00;-3,28;1,47;8,94;19,85;11,22;25,53;4,41;5,41;28,11;56,60;19,85;-21,49;25,53;-5,00;5,41;28,11;56,60;1,79;-8,89;0,00;4,43;653974
IF_LD_R2_8502001_82, SUBCASE 1, Case 1 Time 1.;15;-13,96;-23,18;-18,25;-3,21;-2,36;3,29;5,88;23,94;10,88;23,13;3,27;3,41;32,20;56,21;23,94;-23,18;23,13;3,27;3,41;32,20;56,21;2,28;-7,49;-0,09;4,40;653974
IF_TO_R4_8502005_-55, SUBCASE 1, Case 1 Time 1.;11;-15,20;-21,92;-20,62;-6,86;-5,81;0,69;12,72;32,70;22,47;25,77;5,48;7,94;39,37;55,51;32,70;22,47;25,77;-6,86;7,94;39,37;55,51;0,01;11,93;3,61;4,35;654005
IF_LD_R4_8502001_82, SUBCASE 1, Case 1 Time 1.;18;-15,67;-21,00;-18,14;-5,57;-4,16;1,49;9,14;18,40;11,02;25,08;4,43;5,54;26,72;55,16;18,40;-21,00;25,08;-5,57;5,54;26,72;55,16;1,67;-9,06;-0,04;4,32;653974
IF_TO_R4_8502005_82, SUBCASE 1, Case 1 Time 1.;12;-16,83;-19,57;-17,94;-7,58;-6,78;3,40;10,26;14,48;11,05;25,94;6,38;6,56;23,11;54,76;-16,83;-19,57;25,94;-7,58;-6,78;23,11;54,76;1,22;-10,12;-0,06;4,29;653974
IF_IP2_R4_8502005_JAM2_-55, SUBCASE 1, Case 1 Time 1.;80;-15,86;-18,68;-21,37;-5,89;-2,92;0,90;15,24;32,12;24,43;26,51;4,71;7,43;37,16;54,68;32,12;24,43;26,51;-5,89;7,43;37,16;54,68;0,56;12,89;3,78;4,28;654005
IF_LD_R4_8502001_DIS3_82, SUBCASE 1, Case 1 Time 1.;72;-16,43;-20,09;-18,05;-6,66;-5,60;2,67;10,07;15,84;11,08;25,54;5,23;6,08;24,41;54,62;-16,43;-20,09;25,54;-6,66;6,08;24,41;54,62;1,36;-9,81;-0,09;4,28;653974
IF_TO_R4_8502005_JAM2M_OUT_82, SUBCASE 1, Case 1 Time 1.;123;-18,51;-20,13;-17,42;-9,91;-9,95;3,70;11,81;10,39;10,95;26,57;9,46;7,78;21,91;54,20;-18,51;-20,13;26,57;-9,91;-9,95;21,91;54,20;0,56;-11,61;-0,15;4,24;653974
IF_LD_R4_8502001_DIS3_-55, SUBCASE 1, Case 1 Time 1.;71;-15,21;-20,47;-20,42;-6,00;-4,70;0,82;13,66;32,12;22,97;25,38;4,59;7,51;38,09;54,07;32,12;22,97;25,38;-6,00;7,51;38,09;54,07;0,15;12,24;3,59;4,23;654005
IF_LD_R4_8502001_JAM2_82, SUBCASE 1, Case 1 Time 1.;90;-16,45;-19,99;-17,78;-6,76;-5,82;2,91;9,88;15,46;10,91;25,11;5,45;6,02;24,04;53,80;-16,45;-19,99;25,11;-6,76;6,02;24,04;53,80;1,36;-9,72;-0,10;4,21;653974
IF_LD_R2_8502001_FS11_-55, SUBCASE 1, Case 1 Time 1.;32;-18,26;-7,95;-12,32;-19,92;-13,17;17,46;21,07;35,62;40,58;19,54;14,58;20,41;41,99;52,44;35,62;40,58;19,54;-19,92;20,41;41,99;52,44;3,40;21,31;2,97;4,11;653945
IF_LD_R4_8502001_JAM2_-55, SUBCASE 1, Case 1 Time 1.;89;-15,01;-19,19;-19,82;-5,77;-4,51;1,55;13,80;31,56;23,09;24,67;4,42;7,26;36,93;52,33;31,56;23,09;24,67;-5,77;7,26;36,93;52,33;0,19;12,45;3,57;4,10;654005
IF_IP1_R1_8502005_-55, SUBCASE 1, Case 1 Time 1.;5;-16,06;-22,91;-18,92;-5,27;-4,58;0,60;11,15;31,30;23,29;23,10;4,27;6,11;38,79;51,95;31,30;23,29;23,10;-5,27;6,11;38,79;51,95;-0,57;11,17;3,14;4,07;654005
IF_TO_R4_8502005_JAM2_-55, SUBCASE 1, Case 1 Time 1.;83;-15,42;-16,21;-20,15;-5,47;-2,14;2,04;15,38;30,83;24,82;24,92;4,21;6,70;34,83;51,06;30,83;24,82;24,92;-5,47;6,70;34,83;51,06;0,62;13,26;3,68;4,00;654005
IF_LD_R4_8502001_-55, SUBCASE 1, Case 1 Time 1.;17;-15,16;-16,95;-19,74;-5,39;-3,15;2,19;14,51;30,94;24,13;24,52;4,25;6,89;35,28;50,87;30,94;24,13;24,52;-5,39;6,89;35,28;50,87;0,46;13,01;3,62;3,98;654005
IF_LD_R2_8502001_JAM2_82, SUBCASE 1, Case 1 Time 1.;87;-15,91;-20,61;-17,22;-4,61;-3,35;1,87;9,43;16,43;10,51;22,92;3,77;4,52;25,13;50,76;16,43;-20,61;22,92;-4,61;4,52;25,13;50,76;1,50;-9,09;-0,26;3,97;653974
IF_IP1_R1_8502005_JAM2_-55, SUBCASE 1, Case 1 Time 1.;77;-14,30;-20,65;-18,85;-4,29;-3,19;0,65;11,61;30,67;22,40;22,94;3,56;5,74;36,97;50,32;30,67;22,40;22,94;-4,29;5,74;36,97;50,32;-0,30;11,73;3,20;3,94;654005
IF_IP2_R4_8502005_JAM2M_IN_23, SUBCASE 1, Case 1 Time 1.;112;-5,84;-9,78;-17,86;-6,87;-6,37;0,17;7,27;33,85;19,38;16,63;2,96;6,78;35,14;48,43;33,85;19,38;-17,86;-6,87;6,78;35,14;48,43;3,04;3,81;1,78;3,79;653974
IF_IP1_R1_8502005_JAM2M_OUT_82, SUBCASE 1, Case 1 Time 1.;111;-22,40;-24,91;-14,29;-12,33;-14,41;13,94;16,97;12,85;9,62;22,45;13,86;10,28;28,03;47,58;-22,40;-24,91;22,45;13,86;-14,41;28,03;47,58;-1,18;-14,74;-0,90;3,72;653974
IF_LD_R2_8502001_JAM2_-55, SUBCASE 1, Case 1 Time 1.;86;-14,51;-15,43;-18,33;-4,65;-2,11;2,08;13,42;29,57;24,03;22,55;3,55;5,79;33,35;47,09;29,57;24,03;22,55;-4,65;5,79;33,35;47,09;0,33;13,06;3,41;3,69;654005
IF_LD_R2_8502001_DIS3_82, SUBCASE 1, Case 1 Time 1.;69;-15,00;-21,67;-16,36;-1,98;-1,79;1,03;4,98;18,09;9,91;19,32;2,29;2,04;27,70;47,09;18,09;-21,67;19,32;2,29;2,04;27,70;47,09;1,73;-8,11;-0,53;3,69;653974
IF_IP1_R1_8502005_JAM2_82, SUBCASE 1, Case 1 Time 1.;78;-17,31;-18,98;-16,55;-5,14;-4,35;1,05;10,83;11,06;10,32;22,30;4,00;4,37;20,83;46,96;-17,31;-18,98;22,30;-5,14;4,37;20,83;46,96;0,87;-10,39;-0,49;3,68;653974
IF_LD_R2_8502001_JAM2M_INSF_23, SUBCASE 1, Case 1 Time 1.;124;-5,77;-10,68;-13,87;-10,97;-8,06;4,14;6,37;34,62;21,28;11,16;6,37;11,07;36,12;46,73;34,62;21,28;-13,87;-10,97;11,07;36,12;46,73;3,35;5,36;1,34;3,66;653974
IF_IP1_R1_8502005_JAM2M_OUT_23, SUBCASE 1, Case 1 Time 1.;109;-23,99;-29,60;-10,23;-11,96;-13,91;4,45;6,16;13,28;6,63;13,78;13,38;9,97;32,44;46,70;-23,99;-29,60;13,78;13,38;-13,91;32,44;46,70;-1,60;-5,56;0,58;3,66;653981
IF_IP1_R1_8502005_82, SUBCASE 1, Case 1 Time 1.;6;-17,86;-19,43;-16,27;-5,93;-5,47;1,63;11,61;9,20;10,22;22,25;5,10;4,82;20,86;46,11;-17,86;-19,43;22,25;-5,93;-5,47;20,86;46,11;0,65;-10,85;-0,54;3,61;653974
IF_LD_R2_8502001_JAM2M_INSF_-55, SUBCASE 1, Case 1 Time 1.;125;-15,62;-8,71;-14,29;-11,39;-8,42;11,07;13,96;31,52;35,83;16,63;6,72;11,52;37,12;45,49;31,52;35,83;16,63;-11,39;11,52;37,12;45,49;2,72;18,65;3,51;3,56;653934
IF_LD_R4_8502001_JAM2M_INSF_23, SUBCASE 1, Case 1 Time 1.;127;-5,34;-10,22;-14,53;-9,06;-7,17;3,47;6,15;33,88;20,46;11,88;4,70;9,13;35,27;45,49;33,88;20,46;-14,53;-9,06;9,13;35,27;45,49;3,37;5,27;1,44;3,56;653974
IF_CR_R1_8501009_DIS1_23, SUBCASE 1, Case 1 Time 1.;37;-19,71;-24,14;-13,50;-10,72;-10,77;1,02;3,45;14,15;6,60;19,78;10,29;8,94;27,99;45,28;-19,71;-24,14;19,78;-10,72;-10,77;27,99;45,28;-0,15;-3,33;1,36;3,54;653981
IF_LD_R4_8502001_FS11_82, SUBCASE 1, Case 1 Time 1.;36;-19,65;-23,72;-14,62;-7,16;-4,69;0,50;4,78;24,58;19,50;13,67;4,76;7,28;34,16;45,10;24,58;-23,72;-14,62;-7,16;7,28;34,16;45,10;2,34;-5,81;-1,00;3,53;653974
IF_CR_R1_8501009_DIS3_23, SUBCASE 1, Case 1 Time 1.;55;-18,69;-23,05;-13,52;-10,66;-10,60;0,55;3,26;14,04;6,58;20,13;10,11;8,98;26,99;44,92;-18,69;-23,05;20,13;-10,66;-10,60;26,99;44,92;-0,04;-3,13;1,44;3,52;653981
IF_IP1_R1_8502005_FS11_-55, SUBCASE 1, Case 1 Time 1.;23;-20,64;-21,84;-12,40;-4,78;-6,11;2,09;6,23;27,21;27,15;15,43;5,92;4,00;34,90;44,77;27,21;27,15;15,43;5,92;-6,11;34,90;44,77;-1,79;10,05;2,11;3,50;653981
IF_IP2_R4_8502005_JAM2M_IN_-55, SUBCASE 1, Case 1 Time 1.;113;-16,28;-11,38;-19,06;-7,53;-6,88;6,87;14,37;30,76;34,22;23,09;2,85;7,48;34,81;44,73;30,76;34,22;23,09;-7,53;7,48;34,81;44,73;2,50;17,24;4,00;3,50;654005
IF_IP2_R4_8502005_JAM2M_OUT_23, SUBCASE 1, Case 1 Time 1.;115;-18,13;-22,55;-12,98;-10,96;-11,10;0,52;3,40;13,77;6,56;19,52;10,60;9,01;26,42;44,37;-18,13;-22,55;19,52;-10,96;-11,10;26,42;44,37;0,01;-2,97;1,45;3,47;653981
IF_LD_R2_8502001_-55, SUBCASE 1, Case 1 Time 1.;14;-14,97;-10,58;-18,22;-4,69;-3,08;3,12;13,32;27,92;26,92;22,24;3,09;4,77;29,45;44,24;27,92;26,92;22,24;-4,69;4,77;29,45;44,24;1,07;14,57;3,57;3,46;654005
IF_IP2_R4_8502005_DIS3_23, SUBCASE 1, Case 1 Time 1.;61;-15,48;-19,33;-15,22;-10,62;-10,12;0,37;2,32;13,70;6,41;21,46;9,67;9,56;23,69;44,19;-15,48;-19,33;21,46;-10,62;-10,12;23,69;44,19;0,53;-2,10;1,70;3,46;653981
IF_TO_R4_8502005_JAM2M_IN_INSF_23, SUBCASE 1, Case 1 Time 1.;118;-5,15;-9,18;-16,41;-6,80;-6,15;1,73;7,12;31,02;17,50;14,80;2,57;6,72;32,17;44,06;31,02;17,50;-16,41;-6,80;6,72;32,17;44,06;2,93;3,89;1,73;3,45;653974
IF_LD_R4_8502001_JAM2M_INSF_-55, SUBCASE 1, Case 1 Time 1.;128;-14,98;-9,22;-15,25;-8,99;-7,24;9,87;13,50;30,29;34,44;18,05;4,67;9,08;35,89;43,96;30,29;34,44;18,05;-8,99;9,08;35,89;43,96;2,53;18,05;3,59;3,44;653934
IF_LD_R2_8502001_DIS1_INSF_82, SUBCASE 1, Case 1 Time 1.;51;-15,26;-21,26;-15,52;-1,69;-1,72;0,93;5,57;16,24;9,43;17,74;1,87;1,55;26,75;43,73;16,24;-21,26;17,74;1,87;-1,72;26,75;43,73;1,60;-8,12;-0,66;3,42;653974
IF_IP1_R1_8502005_DIS3_-55, SUBCASE 1, Case 1 Time 1.;59;-12,92;-16,63;-15,72;-2,96;-1,49;2,56;10,37;27,75;22,78;18,73;2,21;3,81;32,35;42,16;27,75;22,78;18,73;-2,96;3,81;32,35;42,16;-0,45;12,08;2,81;3,30;654005
IF_IP1_R1_8502005_DIS1_-55, SUBCASE 1, Case 1 Time 1.;41;-12,87;-16,67;-15,63;-2,92;-1,47;2,51;10,26;27,69;22,84;18,59;2,16;3,76;32,32;42,02;27,69;22,84;18,59;-2,92;3,76;32,32;42,02;-0,48;12,05;2,78;3,29;654005
IF_TO_R4_8502005_JAM2M_IN_INSF_-55, SUBCASE 1, Case 1 Time 1.;119;-15,57;-10,66;-17,51;-7,28;-6,54;8,56;14,36;29,42;32,13;21,43;2,78;7,24;33,78;41,69;29,42;32,13;21,43;-7,28;7,24;33,78;41,69;2,30;17,17;3,91;3,26;654005
IF_LD_R2_8502001_DIS3_-55, SUBCASE 1, Case 1 Time 1.;68;-13,73;-9,87;-16,07;-3,51;-2,45;3,29;11,11;26,52;25,49;19,25;2,17;3,48;28,30;39,84;26,52;25,49;19,25;-3,51;3,48;28,30;39,84;0,52;13,93;3,14;3,12;654005
IF_LD_R4_8502001_FS11_-55, SUBCASE 1, Case 1 Time 1.;35;-13,38;-8,44;-10,59;-8,26;-5,51;10,39;12,01;27,50;29,10;12,15;5,65;8,42;31,79;39,24;27,50;29,10;12,15;-8,26;8,42;31,79;39,24;1,16;16,34;2,68;3,07;653934
IF_TO_R4_8502005_JAM2M_OUT_23, SUBCASE 1, Case 1 Time 1.;121;-15,31;-19,08;-11,94;-9,48;-9,39;0,20;2,78;12,15;5,77;17,83;8,93;8,03;22,62;39,05;-15,31;-19,08;17,83;-9,48;-9,39;22,62;39,05;0,18;-2,37;1,36;3,06;653981
IF_IP1_R1_8502005_DIS3_82, SUBCASE 1, Case 1 Time 1.;60;-17,23;-18,78;-14,85;-2,96;-2,33;0,86;8,44;9,01;9,30;17,82;2,31;2,44;20,50;39,02;-17,23;-18,78;17,82;-2,96;2,44;20,50;39,02;0,77;-9,94;-0,87;3,05;653974
IF_IP1_R1_8502005_DIS1_82, SUBCASE 1, Case 1 Time 1.;42;-17,27;-18,72;-14,78;-2,91;-2,30;1,01;8,49;8,79;9,27;17,63;2,26;2,41;20,37;38,64;-17,27;-18,72;17,63;-2,91;2,41;20,37;38,64;0,75;-9,96;-0,90;3,02;653974
IF_TO_R4_8502005_DIS3_23, SUBCASE 1, Case 1 Time 1.;64;-13,10;-16,34;-13,64;-9,11;-8,53;0,20;1,88;11,88;5,53;18,97;8,12;8,39;20,20;38,39;-13,10;-16,34;18,97;-9,11;-8,53;20,20;38,39;0,56;-1,75;1,54;3,01;653981
IF_LD_R2_8502001_DIS1_INSF_-55, SUBCASE 1, Case 1 Time 1.;50;-13,25;-9,00;-15,00;-3,13;-2,44;4,02;10,64;25,69;25,12;17,94;1,78;2,96;27,34;37,43;25,69;25,12;17,94;-3,13;2,96;27,34;37,43;0,41;13,94;3,04;2,93;654005
IF_IP2_R4_8502005_23, SUBCASE 1, Case 1 Time 1.;7;-12,83;-15,83;-13,71;-8,32;-7,50;0,15;1,77;11,60;5,30;18,87;7,10;7,93;19,62;37,29;-12,83;-15,83;18,87;-8,32;7,93;19,62;37,29;0,59;-1,64;1,50;2,92;653981
IF_LD_R4_8502001_DIS1_INSF_82, SUBCASE 1, Case 1 Time 1.;54;-16,43;-19,57;-13,99;-1,50;-0,69;1,44;6,58;11,53;8,65;15,53;1,56;1,40;22,72;36,69;-16,43;-19,57;15,53;1,56;1,40;22,72;36,69;1,10;-8,82;-0,90;2,87;653974
IF_CR_R1_8501009_FS11_82, SUBCASE 1, Case 1 Time 1.;21;-22,37;-24,56;-11,66;-9,94;-12,50;14,40;16,15;12,00;8,06;15,54;12,13;8,64;27,29;36,24;-22,37;-24,56;15,54;12,13;-12,50;27,29;36,24;-1,36;-14,11;-1,51;2,84;653974
IF_CR_R1_8501009_FS11_23, SUBCASE 1, Case 1 Time 1.;19;-19,80;-23,41;-6,60;-9,72;-12,23;4,94;6,58;8,86;6,09;7,14;11,87;8,18;25,03;36,20;-19,80;-23,41;7,14;11,87;-12,23;25,03;36,20;-1,77;-5,01;0,04;2,83;653981
IF_IP2_R4_8502005_JAM2_23, SUBCASE 1, Case 1 Time 1.;79;-8,26;-9,90;-14,87;-5,49;-3,65;0,12;1,38;15,98;6,99;18,50;4,83;6,70;16,33;35,91;15,98;-9,90;18,50;-5,49;6,70;16,33;35,91;1,22;-0,28;1,58;2,81;653974
IF_LD_R4_8502001_DIS1_INSF_-55, SUBCASE 1, Case 1 Time 1.;53;-12,26;-10,65;-13,36;-2,60;-1,27;4,06;10,04;25,26;23,72;15,98;1,66;2,85;27,41;35,00;25,26;23,72;15,98;-2,60;2,85;27,41;35,00;-0,12;13,21;2,78;2,74;654005
IF_LD_JAM2M_IN_-55, SUBCASE 1, Case 1 Time 1.;107;-10,71;-9,92;-13,26;-0,80;-0,67;4,92;7,93;22,67;24,12;15,53;1,13;0,92;26,40;34,91;22,67;24,12;15,53;1,13;0,92;26,40;34,91;-0,84;12,53;2,08;2,73;653974
IF_TO_R4_8502005_FS11_82, SUBCASE 1, Case 1 Time 1.;30;-16,48;-20,14;-13,53;-1,47;-1,24;2,49;5,47;13,52;9,26;12,95;0,62;1,38;24,25;34,75;-16,48;-20,14;-13,53;-1,47;1,38;24,25;34,75;1,23;-8,23;-1,15;2,72;653974
IF_TO_JAM2M_OUT_-55, SUBCASE 1, Case 1 Time 1.;104;-10,70;-9,79;-13,22;-0,78;-0,73;5,25;8,15;22,98;23,71;15,38;1,05;0,71;25,54;34,02;22,98;23,71;15,38;1,05;-0,73;25,54;34,02;-0,72;12,78;2,10;2,66;653974
IF_IP1_JAM2M_OUT_-55, SUBCASE 1, Case 1 Time 1.;92;-10,73;-9,76;-13,18;-0,78;-0,77;5,26;8,15;23,04;23,63;15,32;1,04;0,68;25,51;33,77;23,04;23,63;15,32;1,04;-0,77;25,51;33,77;-0,70;12,82;2,11;2,64;653974
IF_IP2_JAM2M_OUT_-55, SUBCASE 1, Case 1 Time 1.;98;-10,67;-9,73;-12,94;-0,85;-0,73;5,02;8,04;22,93;23,75;15,28;1,08;0,83;25,64;33,71;22,93;23,75;15,28;1,08;0,83;25,64;33,71;-0,74;12,71;2,12;2,64;653974
IF_TO_R4_8502005_DIS1_-55, SUBCASE 1, Case 1 Time 1.;47;-11,61;-11,31;-12,29;-2,04;-1,09;3,90;8,87;24,69;23,13;14,36;1,64;2,41;27,16;33,45;24,69;23,13;14,36;-2,04;2,41;27,16;33,45;-0,44;12,77;2,50;2,62;654005
IF_IP2_R4_8502005_DIS1_-55, SUBCASE 1, Case 1 Time 1.;44;-11,52;-11,65;-12,20;-1,93;-1,05;3,79;8,57;24,64;23,09;14,16;1,59;2,29;27,26;33,42;24,64;23,09;14,16;-1,93;2,29;27,26;33,42;-0,51;12,65;2,44;2,62;654005
IF_TO_R4_8502005_FS11_-55, SUBCASE 1, Case 1 Time 1.;29;-11,65;-8,75;-11,62;-2,28;-1,91;5,59;9,15;24,59;24,51;13,34;1,30;2,28;26,77;33,37;24,59;24,51;13,34;-2,28;2,28;26,77;33,37;0,02;13,83;2,52;2,61;653934
IF_TO_R4_8502005_JAM2_23, SUBCASE 1, Case 1 Time 1.;82;-6,18;-7,42;-13,94;-4,63;-2,73;0,33;1,65;16,03;7,30;16,83;4,32;5,96;16,41;33,36;16,03;-7,42;16,83;-4,63;5,96;16,41;33,36;1,31;0,12;1,50;2,61;653974
IF_IP2_R4_8502005_FS11_82, SUBCASE 1, Case 1 Time 1.;27;-16,37;-19,45;-13,36;-0,96;-0,61;2,32;6,23;11,32;8,30;13,12;0,80;0,57;22,50;33,31;-16,37;-19,45;-13,36;-0,96;-0,61;22,50;33,31;1,01;-8,72;-1,19;2,61;653974
IF_TO_R4_8502005_23, SUBCASE 1, Case 1 Time 1.;10;-10,36;-12,87;-12,90;-7,27;-6,36;0,09;1,21;10,46;4,66;17,21;5,99;7,16;16,41;33,08;10,46;-12,87;17,21;-7,27;7,16;16,41;33,08;0,73;-1,16;1,44;2,59;653975
IF_TO_JAM2M_IN_-55, SUBCASE 1, Case 1 Time 1.;101;-10,80;-9,66;-12,81;-0,91;-0,84;5,26;8,23;23,17;23,43;15,12;1,06;0,79;25,62;32,90;23,17;23,43;15,12;1,06;-0,84;25,62;32,90;-0,63;12,90;2,15;2,58;653974
IF_LD_R2_8502001_23, SUBCASE 1, Case 1 Time 1.;13;-4,56;-5,36;-13,37;-3,85;-2,67;0,60;3,61;19,91;10,37;14,30;3,19;3,99;20,54;32,48;19,91;10,37;14,30;-3,85;3,99;20,54;32,48;1,75;1,41;1,40;2,54;653974
IF_IP2_JAM2M_IN_-55, SUBCASE 1, Case 1 Time 1.;95;-10,89;-9,60;-12,64;-1,04;-1,01;5,36;8,33;23,33;23,37;14,97;1,04;1,05;25,76;32,25;23,33;23,37;14,97;-1,04;1,05;25,76;32,25;-0,57;13,02;2,18;2,52;653974
IF_TO_R4_8502005_DIS1_82, SUBCASE 1, Case 1 Time 1.;48;-16,98;-18,66;-13,17;-1,59;-1,28;2,38;6,98;9,02;8,26;13,52;1,19;1,29;20,73;32,25;-16,98;-18,66;13,52;-1,59;1,29;20,73;32,25;0,79;-9,23;-1,18;2,52;653974
IF_IP2_R4_8502005_FS11_-55, SUBCASE 1, Case 1 Time 1.;26;-11,60;-8,94;-11,91;-1,87;-1,22;4,65;8,77;23,99;23,60;13,73;1,42;1,79;26,13;32,23;23,99;23,60;13,73;-1,87;1,79;26,13;32,23;-0,22;13,29;2,48;2,52;653934
IF_LD_R4_8502001_DIS3_23, SUBCASE 1, Case 1 Time 1.;70;-9,32;-11,39;-12,92;-6,37;-5,21;0,06;0,97;11,83;4,51;16,84;4,87;6,70;14,88;32,12;11,83;-11,39;16,84;-6,37;6,70;14,88;32,12;0,87;-0,77;1,40;2,51;653974
IF_LD_R4_8502001_23, SUBCASE 1, Case 1 Time 1.;16;-6,48;-7,97;-13,30;-5,24;-3,73;0,14;1,16;14,39;6,22;16,31;4,35;6,12;14,68;31,98;14,39;-7,97;16,31;-5,24;6,12;14,68;31,98;1,19;-0,02;1,45;2,50;653974
IF_IP2_R4_8502005_DIS1_82, SUBCASE 1, Case 1 Time 1.;45;-17,10;-18,50;-13,03;-1,48;-1,22;2,70;7,16;8,42;8,20;13,18;1,14;1,26;20,32;31,43;-17,10;-18,50;13,18;-1,48;1,26;20,32;31,43;0,72;-9,34;-1,24;2,46;653974
IF_LD_R4_8502001_JAM2_23, SUBCASE 1, Case 1 Time 1.;88;-8,43;-10,47;-12,62;-6,33;-5,26;0,06;0,89;11,62;4,37;16,26;4,92;6,55;13,91;31,20;11,62;-10,47;16,26;-6,33;6,55;13,91;31,20;0,89;-0,67;1,39;2,44;653974
IF_IP1_R1_8502005_FS11_82, SUBCASE 1, Case 1 Time 1.;24;-20,18;-21,11;-11,39;-5,33;-6,79;9,97;11,23;9,96;7,62;12,50;6,59;4,76;23,25;29,01;-20,18;-21,11;12,50;6,59;-6,79;23,25;29,01;-0,55;-11,93;-1,56;2,27;653945
IF_IP1_R1_8502005_23, SUBCASE 1, Case 1 Time 1.;4;-11,41;-13,75;-9,14;-5,65;-5,08;0,17;1,60;8,73;3,91;13,39;4,74;5,29;16,29;27,51;-11,41;-13,75;13,39;-5,65;5,29;16,29;27,51;0,13;-2,00;1,00;2,15;653981
IF_LD_R2_8502001_JAM2_23, SUBCASE 1, Case 1 Time 1.;85;-5,44;-6,65;-11,47;-4,21;-2,82;0,18;1,11;12,56;5,47;13,98;3,68;5,07;12,82;27,39;12,56;-6,65;13,98;-4,21;5,07;12,82;27,39;1,03;-0,06;1,25;2,14;653974
IF_IP2_JAM2M_IN_82, SUBCASE 1, Case 1 Time 1.;96;-17,28;-18,45;-11,84;-0,86;-0,74;3,56;5,89;8,74;8,02;10,05;0,58;0,45;20,41;26,90;-17,28;-18,45;-11,84;-0,86;-0,74;20,41;26,90;0,68;-8,95;-1,49;2,11;653974
IF_TO_JAM2M_IN_82, SUBCASE 1, Case 1 Time 1.;102;-17,25;-18,24;-11,70;-0,84;-0,71;3,63;5,97;8,14;7,68;9,88;0,61;0,49;19,97;26,22;-17,25;-18,24;-11,70;-0,84;-0,71;19,97;26,22;0,62;-9,06;-1,52;2,05;653974
IF_IP1_R1_8502005_JAM2_23, SUBCASE 1, Case 1 Time 1.;76;-9,84;-11,74;-9,72;-4,78;-3,85;0,17;1,34;8,17;3,55;13,46;3,65;4,96;14,30;25,85;-9,84;-11,74;13,46;-4,78;4,96;14,30;25,85;0,37;-1,50;1,05;2,02;653981
IF_LD_R4_8502001_FS11_23, SUBCASE 1, Case 1 Time 1.;34;-3,45;-5,89;-5,85;-7,63;-5,04;3,39;4,91;18,07;12,84;5,66;5,15;7,77;18,94;25,54;18,07;12,84;-5,85;-7,63;7,77;18,94;25,54;1,93;3,36;0,51;2,00;653975
IF_IP2_JAM2M_OUT_82, SUBCASE 1, Case 1 Time 1.;99;-17,42;-17,87;-11,55;-0,81;-0,61;3,97;6,21;8,12;7,37;9,83;0,66;0,58;19,31;25,38;-17,42;-17,87;-11,55;-0,81;-0,61;19,31;25,38;0,50;-9,30;-1,55;1,99;653974
IF_IP1_JAM2M_OUT_82, SUBCASE 1, Case 1 Time 1.;93;-17,33;-18,00;-11,48;-0,86;-0,80;3,65;6,09;8,05;7,48;9,49;0,74;0,56;19,49;25,22;-17,33;-18,00;-11,48;-0,86;-0,80;19,49;25,22;0,54;-9,16;-1,57;1,97;653974
IF_TO_JAM2M_OUT_82, SUBCASE 1, Case 1 Time 1.;105;-17,37;-17,91;-11,45;-0,84;-0,74;3,71;6,10;8,08;7,30;9,53;0,73;0,57;19,31;25,06;-17,37;-17,91;-11,45;-0,84;-0,74;19,31;25,06;0,52;-9,22;-1,57;1,96;653974
IF_LD_JAM2M_IN_82, SUBCASE 1, Case 1 Time 1.;108;-17,59;-17,62;-11,31;-0,78;-0,72;3,92;6,25;8,20;7,24;9,43;0,74;0,70;19,42;24,35;-17,59;-17,62;-11,31;-0,78;-0,72;19,42;24,35;0,43;-9,40;-1,59;1,91;653974
IF_LD_R2_8502001_DIS3_23, SUBCASE 1, Case 1 Time 1.;67;-3,30;-3,91;-9,52;-2,64;-2,07;0,95;2,47;14,07;7,34;10,30;2,24;2,66;14,53;23,21;14,07;7,34;10,30;-2,64;2,66;14,53;23,21;1,22;0,79;0,98;1,82;653974
IF_LD_R2_8502001_DIS1_INSF_23, SUBCASE 1, Case 1 Time 1.;49;-2,78;-3,40;-8,24;-2,24;-2,02;0,18;2,31;12,25;6,33;8,68;1,83;2,12;12,66;19,90;12,25;6,33;8,68;-2,24;2,12;12,66;19,90;1,09;0,83;0,83;1,56;653974
IF_IP1_R1_8502005_FS11_23, SUBCASE 1, Case 1 Time 1.;22;-11,09;-12,60;-3,69;-5,09;-6,50;2,77;3,64;4,61;3,43;3,57;6,30;4,29;13,42;19,31;-11,09;-12,60;-3,69;6,30;-6,50;13,42;19,31;-1,08;-3,04;-0,06;1,51;653981
IF_IP1_R1_8502005_DIS3_23, SUBCASE 1, Case 1 Time 1.;58;-6,34;-7,45;-6,30;-2,69;-1,97;0,09;0,84;5,17;2,19;8,67;2,27;2,98;9,06;16,34;-6,34;-7,45;8,67;-2,69;2,98;9,06;16,34;0,26;-1,04;0,65;1,28;653981
IF_IP1_R1_8502005_DIS1_23, SUBCASE 1, Case 1 Time 1.;40;-6,39;-7,48;-6,11;-2,64;-1,95;0,11;0,86;5,10;2,15;8,48;2,22;2,93;9,05;16,07;-6,39;-7,48;8,48;-2,64;2,93;9,05;16,07;0,23;-1,08;0,62;1,26;653981
IF_LD_R4_8502001_DIS1_INSF_23, SUBCASE 1, Case 1 Time 1.;52;-1,82;-2,34;-5,50;-1,73;-0,72;0,29;0,96;6,45;2,81;6,23;1,52;2,03;6,60;12,43;6,45;2,81;6,23;-1,73;2,03;6,60;12,43;0,61;0,17;0,61;0,97;653974
IF_TO_R4_8502005_FS11_23, SUBCASE 1, Case 1 Time 1.;28;-1,24;-2,25;-3,80;-1,78;-1,53;0,09;1,69;7,63;4,46;3,41;0,72;1,77;7,93;10,73;7,63;4,46;-3,80;-1,78;1,77;7,93;10,73;0,73;0,74;0,34;0,84;653974
IF_IP2_R4_8502005_FS11_23, SUBCASE 1, Case 1 Time 1.;25;-1,18;-1,53;-3,40;-1,02;-0,87;0,03;1,02;5,58;3,08;3,58;0,75;0,97;5,78;8,68;5,58;3,08;3,58;-1,02;0,97;5,78;8,68;0,46;0,14;0,29;0,68;653974
IF_TO_R4_8502005_DIS1_23, SUBCASE 1, Case 1 Time 1.;46;-1,73;-2,11;-3,24;-1,33;-0,94;0,03;0,29;3,48;1,51;4,03;1,08;1,57;3,55;7,87;3,48;-2,11;4,03;-1,33;1,57;3,55;7,87;0,29;-0,27;0,31;0,62;653974
IF_IP2_R4_8502005_DIS1_23, SUBCASE 1, Case 1 Time 1.;43;-2,06;-2,42;-2,84;-1,23;-0,89;0,02;0,25;2,88;1,24;3,69;0,98;1,44;3,16;7,06;2,88;-2,42;3,69;-1,23;1,44;3,16;7,06;0,22;-0,40;0,27;0,55;653974
IF_IP2_JAM2M_IN_23, SUBCASE 1, Case 1 Time 1.;94;-0,29;-0,51;-0,54;-0,66;-0,44;0,23;0,38;1,57;1,01;0,48;0,43;0,67;1,65;2,21;1,57;1,01;-0,54;-0,66;0,67;1,65;2,21;0,17;-0,01;0,00;0,17;653975
IF_LD_JAM2M_IN_23, SUBCASE 1, Case 1 Time 1.;106;-1,12;-0,67;-0,39;-0,30;-0,48;0,09;0,26;0,18;0,36;0,49;0,47;0,33;1,17;1,62;-1,12;-0,67;0,49;0,47;-0,48;1,17;1,62;-0,09;-0,46;-0,10;0,13;653974
IF_TO_JAM2M_IN_23, SUBCASE 1, Case 1 Time 1.;100;-0,18;-0,29;-0,28;-0,38;-0,25;0,16;0,24;0,90;0,65;0,29;0,25;0,39;0,95;1,27;0,90;0,65;0,29;-0,38;0,39;0,95;1,27;0,10;-0,12;-0,02;0,10;653975
IF_IP1_JAM2M_OUT_23, SUBCASE 1, Case 1 Time 1.;91;-0,23;-0,13;-0,29;-0,21;-0,17;0,03;0,07;0,36;0,49;0,19;0,21;0,23;0,54;0,81;0,36;0,49;-0,29;0,21;0,23;0,54;0,81;0,06;-0,23;-0,02;0,06;653981
IF_TO_JAM2M_OUT_23, SUBCASE 1, Case 1 Time 1.;103;-0,18;-0,08;-0,29;-0,08;-0,12;0,00;0,03;0,24;0,29;0,20;0,12;0,10;0,34;0,58;0,24;0,29;-0,29;0,12;-0,12;0,34;0,58;0,02;-0,25;-0,07;0,05;653981
IF_IP2_JAM2M_OUT_23, SUBCASE 1, Case 1 Time 1.;97;-0,18;-0,21;-0,05;-0,05;-0,07;0,05;0,06;0,07;0,05;0,05;0,07;0,05;0,22;0,28;-0,18;-0,21;0,05;0,07;-0,07;0,22;0,28;0,00;-0,33;-0,05;0,02;653981
Ref CID;Coord Material;;;;;;;;;;;;;;;;;;;;;;;;;;
