LC_Name;LC_ID;qxMin;qyMin;qxyMin;qxzMin;qyzMin;qshearMin;qvonmisesMin;qxMax;qyMax;qxyMax;qxzMax;qyzMax;qshearMax;qvonmisesMax;qxAbsMax;qyAbsMax;qxyAbsMax;qxzAbsMax;qyzAbsMax;qshearAbsMax;qvonmisesAbsMax;qxAverage;qyAverage;qxyAverage;sigmaVonMisesMax;CriticalElemID
IF_CR_R1_8501009_JAM2_-55, SUBCASE 1, Case 1 Time 1.;74;-59,28;-81,68;-54,66;-2,36;-18,62;11,48;13,76;112,75;123,11;39,87;15,00;21,10;131,38;142,82;112,75;123,11;-54,66;15,00;21,10;131,38;142,82;10,03;16,97;0,97;47,61;653252
IF_CR_R1_8501009_JAM2_23, SUBCASE 1, Case 1 Time 1.;73;-58,78;-80,79;-54,09;-1,92;-18,42;11,86;14,18;112,41;122,14;39,33;14,85;20,75;130,46;142,16;112,41;122,14;-54,09;14,85;20,75;130,46;142,16;9,84;16,91;0,93;47,39;653252
IF_CR_R1_8501009_JAM2_82, SUBCASE 1, Case 1 Time 1.;75;-58,40;-80,13;-54,09;-1,58;-18,27;11,55;14,49;112,16;121,42;38,92;14,73;20,50;129,77;141,65;112,16;121,42;-54,09;14,73;20,50;129,77;141,65;9,83;17,09;0,92;47,22;653252
IF_CR_R1_8501009_-55, SUBCASE 1, Case 1 Time 1.;2;-58,30;-80,31;-53,73;-2,25;-18,30;11,52;14,17;112,22;121,65;39,08;14,76;20,68;129,88;141,35;112,22;121,65;-53,73;14,76;20,68;129,88;141,35;9,83;16,89;0,96;47,12;653252
IF_CR_R1_8501009_23, SUBCASE 1, Case 1 Time 1.;1;-57,93;-79,59;-53,72;-1,82;-18,14;11,69;14,55;111,95;120,88;38,65;14,64;20,39;129,16;140,88;111,95;120,88;-53,72;14,64;20,39;129,16;140,88;9,47;16,56;0,87;46,96;653252
IF_CR_R1_8501009_82, SUBCASE 1, Case 1 Time 1.;3;-57,65;-79,07;-53,76;-1,59;-18,02;11,25;14,72;111,76;120,30;38,32;14,55;20,18;128,62;140,53;111,76;120,30;-53,76;14,55;20,18;128,62;140,53;9,68;17,03;0,90;46,84;653252
IF_IP2_R4_8502005_DIS3_-55, SUBCASE 1, Case 1 Time 1.;62;-43,35;-59,59;-39,96;-1,83;-13,59;7,85;8,98;80,22;90,13;29,43;10,93;15,57;95,82;103,17;80,22;90,13;-39,96;10,93;15,57;95,82;103,17;7,33;11,95;0,71;34,39;653252
IF_IP2_R4_8502005_DIS3_23, SUBCASE 1, Case 1 Time 1.;61;-43,07;-59,01;-39,34;-1,41;-13,46;8,22;9,32;80,11;89,52;29,07;10,83;15,31;95,26;102,87;80,11;89,52;-39,34;10,83;15,31;95,26;102,87;7,18;11,91;0,67;34,29;653252
IF_IP2_R4_8502005_DIS3_82, SUBCASE 1, Case 1 Time 1.;63;-42,86;-58,59;-38,89;-1,09;-13,36;8,48;9,59;80,03;89,05;28,78;10,76;15,13;94,84;102,65;80,03;89,05;-38,89;10,76;15,13;94,84;102,65;7,21;12,12;0,65;34,22;653252
IF_IP2_R4_8502005_JAM2M_IN_-55, SUBCASE 1, Case 1 Time 1.;113;-41,98;-57,49;-38,57;-2,22;-13,22;6,26;6,03;67,94;84,35;29,54;10,53;15,61;88,94;93,95;67,94;84,35;-38,57;10,53;15,61;88,94;93,95;7,18;9,79;0,56;31,32;653252
IF_CR_R1_8501009_DIS3_-55, SUBCASE 1, Case 1 Time 1.;56;-39,36;-54,17;-36,29;-1,49;-12,33;7,15;8,78;74,17;81,74;26,40;9,98;14,03;86,94;93,82;74,17;81,74;-36,29;9,98;14,03;86,94;93,82;6,37;10,86;0,63;31,27;653252
IF_IP2_R4_8502005_JAM2M_IN_23, SUBCASE 1, Case 1 Time 1.;112;-41,68;-56,88;-37,93;-1,80;-13,08;6,48;6,09;67,87;83,73;29,15;10,43;15,34;88,39;93,66;67,87;83,73;-37,93;10,43;15,34;88,39;93,66;7,04;9,86;0,52;31,22;653252
IF_IP2_R4_8502005_JAM2M_IN_82, SUBCASE 1, Case 1 Time 1.;114;-41,45;-56,44;-37,47;-1,81;-12,97;6,65;6,16;67,83;83,27;28,84;10,35;15,14;87,97;93,45;67,83;83,27;-37,47;10,35;15,14;87,97;93,45;7,05;10,00;0,50;31,15;653252
IF_CR_R1_8501009_DIS3_23, SUBCASE 1, Case 1 Time 1.;55;-39,03;-53,53;-35,63;-1,07;-12,19;7,50;9,13;73,95;81,01;26,01;9,87;13,76;86,27;93,40;73,95;81,01;-35,63;9,87;13,76;86,27;93,40;6,21;10,81;0,59;31,13;653252
IF_CR_R1_8501009_DIS3_82, SUBCASE 1, Case 1 Time 1.;57;-38,78;-53,06;-35,15;-1,03;-12,08;7,07;9,39;73,80;80,46;25,70;9,78;13,56;85,76;93,08;73,80;80,46;-35,15;9,78;13,56;85,76;93,08;6,23;11,00;0,58;31,03;653252
IF_IP2_R4_8502005_JAM2_-55, SUBCASE 1, Case 1 Time 1.;80;-39,80;-54,56;-36,57;-1,76;-12,48;6,56;7,26;70,35;81,66;27,28;10,03;14,42;86,56;92,63;70,35;81,66;-36,57;10,03;14,42;86,56;92,63;6,65;10,36;0,55;30,88;653252
IF_IP2_R4_8502005_JAM2_23, SUBCASE 1, Case 1 Time 1.;79;-39,54;-54,00;-35,96;-1,33;-12,35;6,92;7,60;70,38;81,11;26,92;9,93;14,16;86,08;92,44;70,38;81,11;-35,96;9,93;14,16;86,08;92,44;6,54;10,43;0,52;30,81;653252
IF_IP2_R4_8502005_JAM2_82, SUBCASE 1, Case 1 Time 1.;81;-39,34;-53,60;-35,52;-1,04;-12,26;7,21;7,87;70,41;80,69;26,64;9,86;13,97;85,72;92,29;70,41;80,69;-35,52;9,86;13,97;85,72;92,29;6,53;10,58;0,50;30,76;653252
IF_CR_R1_8501009_DIS1_-55, SUBCASE 1, Case 1 Time 1.;38;-38,86;-53,62;-35,96;-1,58;-12,20;6,74;8,09;72,52;80,11;26,07;9,90;13,85;85,18;91,80;72,52;80,11;-35,96;9,90;13,85;85,18;91,80;6,14;10,46;0,69;30,60;653252
IF_TO_R4_8502005_DIS3_-55, SUBCASE 1, Case 1 Time 1.;65;-38,67;-53,08;-35,62;-1,67;-12,11;6,80;7,81;70,99;80,40;26,32;9,76;13,91;85,39;91,72;70,99;80,40;-35,62;9,76;13,91;85,39;91,72;6,50;10,50;0,62;30,57;653252
IF_TO_R4_8502005_DIS3_23, SUBCASE 1, Case 1 Time 1.;64;-38,38;-52,49;-35,00;-1,24;-11,98;7,16;8,13;70,85;79,74;25,94;9,65;13,65;84,80;91,38;70,85;79,74;-35,00;9,65;13,65;84,80;91,38;6,44;10,62;0,59;30,46;653252
IF_CR_R1_8501009_DIS1_23, SUBCASE 1, Case 1 Time 1.;37;-38,54;-52,98;-35,30;-1,17;-12,06;7,09;8,40;72,26;79,35;25,68;9,79;13,58;84,48;91,34;72,26;79,35;-35,30;9,79;13,58;84,48;91,34;5,98;10,38;0,65;30,45;653252
IF_IP2_R4_8502005_-55, SUBCASE 1, Case 1 Time 1.;8;-38,54;-52,82;-35,39;-1,58;-12,06;6,75;8,01;70,56;79,85;26,18;9,71;13,84;84,81;91,20;70,56;79,85;-35,39;9,71;13,84;84,81;91,20;6,43;10,45;0,54;30,40;653252
IF_TO_R4_8502005_DIS3_82, SUBCASE 1, Case 1 Time 1.;66;-38,16;-52,06;-34,54;-0,95;-11,88;7,43;8,38;70,75;79,25;25,65;9,58;13,46;84,35;91,12;70,75;79,25;-34,54;9,58;13,46;84,35;91,12;6,37;10,66;0,57;30,37;653252
IF_IP2_R4_8502005_23, SUBCASE 1, Case 1 Time 1.;7;-38,34;-52,35;-34,84;-1,17;-11,95;7,14;8,37;70,59;79,38;25,88;9,63;13,61;84,42;91,08;70,59;79,38;-34,84;9,63;13,61;84,42;91,08;6,33;10,51;0,51;30,36;653252
IF_IP2_R4_8502005_82, SUBCASE 1, Case 1 Time 1.;9;-38,18;-52,01;-34,44;-0,95;-11,87;7,41;8,64;70,62;79,03;25,63;9,57;13,44;84,12;90,99;70,62;79,03;-34,44;9,57;13,44;84,12;90,99;6,32;10,66;0,49;30,33;653252
IF_CR_R1_8501009_DIS1_82, SUBCASE 1, Case 1 Time 1.;39;-38,29;-52,51;-34,82;-1,02;-11,95;6,94;8,64;72,07;78,78;25,37;9,71;13,38;83,95;90,98;72,07;78,78;-34,82;9,71;13,38;83,95;90,98;5,99;10,58;0,65;30,33;653252
IF_IP2_R4_8502005_JAM2M_OUT_-55, SUBCASE 1, Case 1 Time 1.;116;-37,74;-51,77;-34,64;-1,39;-11,79;7,09;9,00;71,76;78,91;25,33;9,53;13,41;83,96;90,69;71,76;78,91;-34,64;9,53;13,41;83,96;90,69;6,22;10,63;0,55;30,23;653252
IF_IP2_R4_8502005_JAM2M_OUT_23, SUBCASE 1, Case 1 Time 1.;115;-37,52;-51,27;-34,08;-1,04;-11,68;7,26;9,43;71,85;78,43;25,00;9,44;13,17;83,55;90,58;71,85;78,43;-34,08;9,44;13,17;83,55;90,58;6,17;10,74;0,52;30,19;653252
IF_IP2_R4_8502005_JAM2M_OUT_82, SUBCASE 1, Case 1 Time 1.;117;-37,36;-50,91;-34,22;-1,01;-11,60;6,84;8,97;71,93;78,06;24,74;9,38;12,99;83,25;90,50;71,93;78,06;-34,22;9,38;12,99;83,25;90,50;6,10;10,85;0,50;30,17;653252
IF_TO_R4_8502005_JAM2_-55, SUBCASE 1, Case 1 Time 1.;83;-36,47;-49,87;-33,44;-1,64;-11,41;5,98;6,67;64,24;75,12;25,07;9,16;13,22;79,55;84,93;64,24;75,12;-33,44;9,16;13,22;79,55;84,93;6,13;9,46;0,49;28,31;653252
IF_TO_R4_8502005_JAM2_23, SUBCASE 1, Case 1 Time 1.;82;-36,23;-49,35;-32,86;-1,22;-11,29;6,34;7,00;64,30;74,60;24,73;9,07;12,97;79,11;84,77;64,30;74,60;-32,86;9,07;12,97;79,11;84,77;6,08;9,60;0,46;28,26;653252
IF_TO_R4_8502005_JAM2_82, SUBCASE 1, Case 1 Time 1.;84;-36,05;-48,97;-32,44;-0,96;-11,20;6,61;7,26;64,36;74,21;24,45;9,01;12,79;78,78;84,65;64,36;74,21;-32,44;9,01;12,79;78,78;84,65;6,01;9,68;0,44;28,22;653252
IF_TO_R4_8502005_-55, SUBCASE 1, Case 1 Time 1.;11;-35,41;-48,43;-32,46;-1,49;-11,06;6,16;7,34;64,60;73,65;24,14;8,90;12,73;78,16;83,85;64,60;73,65;-32,46;8,90;12,73;78,16;83,85;5,96;9,57;0,48;27,95;653252
IF_TO_R4_8502005_23, SUBCASE 1, Case 1 Time 1.;10;-35,23;-47,98;-31,93;-1,08;-10,96;6,54;7,69;64,65;73,20;23,85;8,83;12,50;77,79;83,76;64,65;73,20;-31,93;8,83;12,50;77,79;83,76;5,91;9,72;0,45;27,92;653252
IF_TO_R4_8502005_82, SUBCASE 1, Case 1 Time 1.;12;-35,08;-47,66;-31,54;-0,86;-10,89;6,84;7,96;64,70;72,86;23,61;8,77;12,34;77,51;83,69;64,70;72,86;-31,54;8,77;12,34;77,51;83,69;5,86;9,79;0,43;27,90;653252
IF_TO_R4_8502005_JAM2M_OUT_-55, SUBCASE 1, Case 1 Time 1.;122;-34,80;-47,64;-31,89;-1,30;-10,86;6,45;8,19;65,80;72,86;23,43;8,77;12,38;77,45;83,46;65,80;72,86;-31,89;8,77;12,38;77,45;83,46;5,76;9,73;0,49;27,82;653252
IF_TO_R4_8502005_JAM2M_OUT_23, SUBCASE 1, Case 1 Time 1.;121;-34,59;-47,16;-31,34;-0,94;-10,75;6,74;8,61;65,91;72,39;23,10;8,69;12,14;77,06;83,37;65,91;72,39;-31,34;8,69;12,14;77,06;83,37;5,70;9,84;0,46;27,79;653252
IF_TO_R4_8502005_JAM2M_OUT_82, SUBCASE 1, Case 1 Time 1.;123;-34,43;-46,81;-31,38;-0,92;-10,67;6,32;8,30;65,99;72,03;22,84;8,63;11,97;76,76;83,30;65,99;72,03;-31,38;8,63;11,97;76,76;83,30;5,64;9,95;0,44;27,77;653252
IF_TO_R4_8502005_JAM2M_IN_INSF_-55, SUBCASE 1, Case 1 Time 1.;119;-37,07;-50,61;-34,01;-2,06;-11,65;5,47;5,42;59,44;74,79;26,24;9,30;13,81;78,75;82,86;59,44;74,79;-34,01;9,30;13,81;78,75;82,86;6,35;8,48;0,47;27,62;653252
IF_LD_R4_8502001_DIS3_-55, SUBCASE 1, Case 1 Time 1.;71;-35,31;-48,39;-32,48;-1,57;-11,06;5,92;6,70;63,49;73,06;24,14;8,91;12,76;77,46;82,85;63,49;73,06;-32,48;8,91;12,76;77,46;82,85;5,89;9,29;0,54;27,62;653252
IF_TO_R4_8502005_JAM2M_IN_INSF_23, SUBCASE 1, Case 1 Time 1.;118;-36,84;-50,10;-33,44;-1,64;-11,54;5,65;5,43;59,38;74,26;25,90;9,21;13,57;78,28;82,65;59,38;74,26;-33,44;9,21;13,57;78,28;82,65;6,28;8,64;0,44;27,55;653252
IF_LD_R4_8502001_DIS3_23, SUBCASE 1, Case 1 Time 1.;70;-35,05;-47,84;-31,88;-1,14;-10,93;6,26;7,00;63,41;72,45;23,79;8,81;12,51;76,92;82,57;63,41;72,45;-31,88;8,81;12,51;76,92;82,57;5,77;9,33;0,51;27,52;653252
IF_TO_R4_8502005_JAM2M_IN_INSF_82, SUBCASE 1, Case 1 Time 1.;120;-36,67;-49,73;-33,02;-1,61;-11,45;5,80;5,46;59,35;73,85;25,64;9,14;13,39;77,93;82,49;59,35;73,85;-33,02;9,14;13,39;77,93;82,49;6,23;8,68;0,41;27,50;653252
IF_LD_R4_8502001_DIS3_82, SUBCASE 1, Case 1 Time 1.;72;-34,85;-47,44;-31,44;-0,88;-10,84;6,53;7,24;63,36;72,00;23,51;8,74;12,32;76,51;82,35;63,36;72,00;-31,44;8,74;12,32;76,51;82,35;5,76;9,47;0,49;27,45;653252
IF_LD_R4_8502001_82, SUBCASE 1, Case 1 Time 1.;18;-34,34;-46,53;-30,78;-0,87;-10,64;6,52;7,40;62,14;71,17;23,27;8,55;12,12;75,61;81,34;62,14;71,17;-30,78;8,55;12,12;75,61;81,34;5,79;9,40;0,39;27,11;653252
IF_LD_R4_8502001_23, SUBCASE 1, Case 1 Time 1.;16;-34,42;-46,77;-31,11;-1,12;-10,70;6,23;7,14;61,96;71,39;23,47;8,59;12,26;75,75;81,26;61,96;71,39;-31,11;8,59;12,26;75,75;81,26;5,82;9,28;0,41;27,09;653252
IF_LD_R4_8502001_-55, SUBCASE 1, Case 1 Time 1.;17;-34,52;-47,10;-31,57;-1,53;-10,77;5,85;6,80;61,74;71,66;23,71;8,65;12,46;75,94;81,16;61,74;71,66;-31,57;8,65;12,46;75,94;81,16;5,88;9,15;0,44;27,05;653252
IF_LD_R4_8502001_JAM2_82, SUBCASE 1, Case 1 Time 1.;90;-33,51;-45,41;-30,04;-0,82;-10,38;6,52;7,59;61,56;69,67;22,60;8,36;11,77;74,09;79,88;61,56;69,67;-30,04;8,36;11,77;74,09;79,88;5,63;9,32;0,39;26,63;653252
IF_LD_R4_8502001_JAM2_23, SUBCASE 1, Case 1 Time 1.;88;-33,56;-45,62;-30,35;-1,04;-10,42;6,20;7,28;61,29;69,83;22,79;8,39;11,91;74,17;79,72;61,29;69,83;-30,35;8,39;11,91;74,17;79,72;5,65;9,18;0,41;26,57;653252
IF_LD_R4_8502001_JAM2_-55, SUBCASE 1, Case 1 Time 1.;89;-33,64;-45,92;-30,78;-1,45;-10,49;5,80;6,89;60,94;70,03;23,02;8,44;12,10;74,27;79,51;60,94;70,03;-30,78;8,44;12,10;74,27;79,51;5,70;9,03;0,44;26,50;653252
IF_LD_R2_8502001_82, SUBCASE 1, Case 1 Time 1.;15;-32,09;-43,40;-28,71;-0,94;-9,94;5,74;6,17;55,91;66,08;21,95;7,97;11,41;69,97;74,75;55,91;66,08;-28,71;7,97;11,41;69,97;74,75;5,40;8,41;0,33;24,92;653252
IF_LD_R2_8502001_23, SUBCASE 1, Case 1 Time 1.;13;-32,16;-43,61;-29,02;-1,13;-9,99;5,47;5,94;55,71;66,27;22,13;8,01;11,55;70,09;74,65;55,71;66,27;-29,02;8,01;11,55;70,09;74,65;5,45;8,33;0,35;24,88;653252
IF_LD_R2_8502001_-55, SUBCASE 1, Case 1 Time 1.;14;-32,24;-43,92;-29,45;-1,54;-10,06;5,13;5,66;55,47;66,51;22,36;8,06;11,74;70,24;74,52;55,47;66,51;-29,45;8,06;11,74;70,24;74,52;5,48;8,15;0,38;24,84;653252
IF_LD_R2_8502001_JAM2_82, SUBCASE 1, Case 1 Time 1.;87;-29,34;-39,69;-26,23;-0,74;-9,07;5,66;6,53;53,46;61,08;19,82;7,30;10,31;64,85;69,71;53,46;61,08;-26,23;7,30;10,31;64,85;69,71;4,91;8,08;0,32;23,24;653252
IF_LD_R2_8502001_JAM2_23, SUBCASE 1, Case 1 Time 1.;85;-29,42;-39,92;-26,55;-0,90;-9,13;5,36;6,24;53,23;61,29;20,02;7,34;10,46;64,99;69,61;53,23;61,29;-26,55;7,34;10,46;64,99;69,61;4,97;8,00;0,34;23,20;653252
IF_LD_R2_8502001_JAM2_-55, SUBCASE 1, Case 1 Time 1.;86;-29,52;-40,25;-27,00;-1,32;-9,20;4,96;5,88;52,95;61,56;20,27;7,39;10,66;65,16;69,49;52,95;61,56;-27,00;7,39;10,66;65,16;69,49;5,00;7,81;0,37;23,16;653252
IF_LD_R4_8502001_JAM2M_INSF_23, SUBCASE 1, Case 1 Time 1.;127;-30,80;-41,44;-27,64;-1,51;-9,59;4,66;4,80;47,61;62,14;22,03;7,64;11,38;65,28;68,30;47,61;62,14;-27,64;7,64;11,38;65,28;68,30;5,31;6,75;0,24;22,77;653252
IF_LD_R4_8502001_JAM2M_INSF_-55, SUBCASE 1, Case 1 Time 1.;128;-30,96;-41,88;-28,15;-1,93;-9,68;4,55;4,89;47,61;62,43;22,28;7,72;11,56;65,52;68,29;47,61;62,43;-28,15;7,72;11,56;65,52;68,29;5,33;6,62;0,28;22,76;653252
IF_LD_R4_8502001_JAM2M_INSF_82, SUBCASE 1, Case 1 Time 1.;129;-30,65;-41,11;-27,24;-1,55;-9,51;4,75;4,73;47,61;61,78;21,78;7,58;11,21;64,97;68,17;47,61;61,78;-27,24;7,58;11,21;64,97;68,17;5,27;6,85;0,22;22,72;653252
IF_IP1_R1_8502005_JAM2_-55, SUBCASE 1, Case 1 Time 1.;77;-27,86;-38,40;-25,83;-1,19;-8,75;4,53;5,24;50,69;57,55;18,85;7,08;10,07;60,95;65,11;50,69;57,55;-25,83;7,08;10,07;60,95;65,11;4,41;7,25;0,47;21,70;653252
IF_IP1_R1_8502005_JAM2_23, SUBCASE 1, Case 1 Time 1.;76;-27,46;-37,66;-25,11;-0,76;-8,58;4,88;5,56;50,41;56,66;18,39;6,95;9,77;60,11;64,52;50,41;56,66;-25,11;6,95;9,77;60,11;64,52;4,41;7,50;0,45;21,51;653252
IF_IP1_R1_8502005_JAM2_82, SUBCASE 1, Case 1 Time 1.;78;-27,15;-37,12;-24,58;-0,69;-8,45;4,73;5,82;50,21;55,98;18,03;6,85;9,54;59,47;64,08;50,21;55,98;-24,58;6,85;9,54;59,47;64,08;4,24;7,37;0,42;21,36;653252
IF_IP1_R1_8502005_-55, SUBCASE 1, Case 1 Time 1.;5;-26,94;-37,15;-24,98;-1,09;-8,46;4,53;5,44;49,93;55,86;18,12;6,85;9,70;59,23;63,46;49,93;55,86;-24,98;6,85;9,70;59,23;63,46;4,25;7,16;0,46;21,15;653252
IF_IP1_R1_8502005_23, SUBCASE 1, Case 1 Time 1.;4;-26,64;-36,55;-24,35;-0,71;-8,32;4,90;5,76;49,74;55,16;17,74;6,75;9,44;58,58;63,06;49,74;55,16;-24,35;6,75;9,44;58,58;63,06;4,27;7,42;0,44;21,02;653252
IF_IP1_R1_8502005_82, SUBCASE 1, Case 1 Time 1.;6;-26,40;-36,10;-23,89;-0,68;-8,22;4,50;6,01;49,59;54,62;17,44;6,67;9,24;58,08;62,75;49,59;54,62;-23,89;6,67;9,24;58,08;62,75;4,10;7,30;0,41;20,92;653252
IF_LD_R2_8502001_JAM2M_INSF_-55, SUBCASE 1, Case 1 Time 1.;125;-28,36;-38,31;-25,78;-1,83;-8,87;4,20;4,62;42,78;57,28;20,51;7,06;10,66;59,93;62,12;42,78;57,28;-25,78;7,06;10,66;59,93;62,12;4,87;5,88;0,24;20,71;653252
IF_LD_R2_8502001_JAM2M_INSF_23, SUBCASE 1, Case 1 Time 1.;124;-28,23;-37,94;-25,31;-1,42;-8,78;4,26;4,47;42,86;56,93;20,26;7,00;10,46;59,66;62,09;42,86;56,93;-25,31;7,00;10,46;59,66;62,09;4,83;6,08;0,21;20,70;653252
IF_LD_R2_8502001_JAM2M_INSF_82, SUBCASE 1, Case 1 Time 1.;126;-28,11;-37,65;-24,94;-1,48;-8,71;4,33;4,37;42,95;56,63;20,02;6,95;10,30;59,41;62,04;42,95;56,63;-24,94;6,95;10,30;59,41;62,04;4,77;6,11;0,19;20,68;653252
IF_IP1_R1_8502005_JAM2M_OUT_-55, SUBCASE 1, Case 1 Time 1.;110;-22,65;-31,44;-21,33;-0,78;-7,11;4,28;5,16;47,03;47,53;15,22;5,84;7,92;50,84;55,63;47,03;47,53;-21,33;5,84;7,92;50,84;55,63;3,30;6,67;0,46;18,54;653252
IF_IP1_R1_8502005_JAM2M_OUT_23, SUBCASE 1, Case 1 Time 1.;109;-22,34;-30,83;-21,44;-0,74;-6,97;3,97;4,46;46,86;46,78;15,50;5,74;7,65;50,15;55,22;46,86;46,78;-21,44;5,74;7,65;50,15;55,22;3,15;6,62;0,43;18,41;653252
IF_IP1_R1_8502005_JAM2M_OUT_82, SUBCASE 1, Case 1 Time 1.;111;-22,10;-30,37;-21,51;-0,78;-6,87;3,77;4,02;46,74;46,20;15,71;5,66;7,58;49,63;54,91;46,74;46,20;-21,51;5,66;7,58;49,63;54,91;3,15;6,81;0,42;18,30;653252
IF_LD_R2_8502001_DIS3_-55, SUBCASE 1, Case 1 Time 1.;68;-23,25;-31,71;-21,34;-1,17;-7,26;3,54;4,03;40,12;48,20;16,10;5,84;8,49;50,80;53,63;40,12;48,20;-21,34;5,84;8,49;50,80;53,63;3,84;5,76;0,30;17,88;653252
IF_LD_R2_8502001_DIS3_23, SUBCASE 1, Case 1 Time 1.;67;-23,00;-31,18;-20,76;-0,75;-7,14;3,84;4,26;40,03;47,59;15,76;5,75;8,24;50,25;53,33;40,03;47,59;-20,76;5,75;8,24;50,25;53,33;3,81;5,95;0,27;17,78;653252
IF_LD_R2_8502001_DIS3_82, SUBCASE 1, Case 1 Time 1.;69;-22,81;-30,79;-20,33;-0,70;-7,05;4,08;4,46;39,97;47,12;15,49;5,68;8,06;49,83;53,10;39,97;47,12;-20,33;5,68;8,06;49,83;53,10;3,71;5,93;0,24;17,70;653252
IF_LD_R2_8502001_DIS1_INSF_-55, SUBCASE 1, Case 1 Time 1.;50;-19,81;-26,99;-18,19;-1,06;-6,18;2,91;3,39;33,86;41,10;13,77;4,98;7,25;43,26;45,54;33,86;41,10;-18,19;4,98;7,25;43,26;45,54;3,25;4,82;0,24;15,18;653252
IF_LD_R2_8502001_DIS1_INSF_23, SUBCASE 1, Case 1 Time 1.;49;-19,30;-26,09;-17,37;-0,63;-5,98;3,14;3,55;33,27;39,93;13,25;4,82;6,91;42,12;44,60;33,27;39,93;-17,37;4,82;6,91;42,12;44,60;3,10;4,80;0,20;14,87;653252
IF_LD_R2_8502001_DIS1_INSF_82, SUBCASE 1, Case 1 Time 1.;51;-18,99;-25,54;-16,84;-0,66;-5,85;3,36;3,72;33,00;39,22;12,90;4,72;6,68;41,45;44,10;33,00;39,22;-16,84;4,72;6,68;41,45;44,10;3,06;4,89;0,18;14,70;653252
IF_IP1_R1_8502005_DIS3_-55, SUBCASE 1, Case 1 Time 1.;59;-17,99;-24,83;-16,77;-0,83;-5,66;2,79;3,33;32,77;37,34;12,18;4,58;6,55;39,46;41,98;32,77;37,34;-16,77;4,58;6,55;39,46;41,98;2,80;4,61;0,31;13,99;653252
IF_IP1_R1_8502005_DIS3_23, SUBCASE 1, Case 1 Time 1.;58;-17,71;-24,26;-16,17;-0,47;-5,53;3,14;3,62;32,59;36,65;11,82;4,49;6,30;38,84;41,59;32,59;36,65;-16,17;4,49;6,30;38,84;41,59;2,79;4,81;0,28;13,86;653252
IF_IP1_R1_8502005_DIS3_82, SUBCASE 1, Case 1 Time 1.;60;-17,49;-23,83;-15,72;-0,54;-5,43;2,79;3,87;32,46;36,13;11,53;4,41;6,11;38,35;41,29;32,46;36,13;-15,72;4,41;6,11;38,35;41,29;2,67;4,75;0,26;13,76;653252
IF_IP1_R1_8502005_DIS1_-55, SUBCASE 1, Case 1 Time 1.;41;-17,72;-24,51;-16,57;-0,87;-5,58;2,68;3,11;32,08;36,66;12,01;4,53;6,46;38,73;41,14;32,08;36,66;-16,57;4,53;6,46;38,73;41,14;2,73;4,48;0,33;13,71;653252
IF_IP1_R1_8502005_DIS1_23, SUBCASE 1, Case 1 Time 1.;40;-17,43;-23,92;-15,96;-0,46;-5,44;3,01;3,37;31,86;35,94;11,64;4,42;6,20;38,06;40,70;31,86;35,94;-15,96;4,42;6,20;38,06;40,70;2,71;4,66;0,31;13,57;653252
IF_IP1_R1_8502005_DIS1_82, SUBCASE 1, Case 1 Time 1.;42;-17,20;-23,48;-15,50;-0,52;-5,34;2,76;3,59;31,70;35,38;11,35;4,35;6,01;37,55;40,36;31,70;35,38;-15,50;4,35;6,01;37,55;40,36;2,59;4,60;0,28;13,45;653252
IF_LD_R4_8502001_DIS1_INSF_-55, SUBCASE 1, Case 1 Time 1.;53;-13,25;-17,99;-12,18;-0,79;-4,13;1,86;2,52;22,96;27,75;9,24;3,33;4,85;29,23;30,79;22,96;27,75;-12,18;3,33;4,85;29,23;30,79;2,19;3,26;0,12;10,26;653252
IF_LD_R4_8502001_DIS1_INSF_23, SUBCASE 1, Case 1 Time 1.;52;-12,99;-17,44;-11,58;-0,38;-4,00;2,16;2,74;22,80;27,08;8,90;3,24;4,60;28,62;30,42;22,80;27,08;-11,58;3,24;4,60;28,62;30,42;2,13;3,38;0,10;10,14;653252
IF_LD_R4_8502001_DIS1_INSF_82, SUBCASE 1, Case 1 Time 1.;54;-12,78;-17,04;-11,15;-0,57;-3,91;2,26;2,96;22,70;26,58;8,62;3,17;4,41;28,16;30,15;22,70;26,58;-11,15;3,17;4,41;28,16;30,15;2,06;3,41;0,07;10,05;653252
IF_LD_R2_8502001_FS11_-55, SUBCASE 1, Case 1 Time 1.;32;-11,63;-14,92;-10,31;-1,34;-3,72;2,15;3,28;13,73;25,42;9,47;2,86;5,17;25,88;25,63;13,73;25,42;-10,31;2,86;5,17;25,88;25,63;2,60;1,84;-0,09;8,54;653252
IF_LD_R2_8502001_FS11_23, SUBCASE 1, Case 1 Time 1.;31;-11,48;-14,53;-9,83;-1,84;-3,63;1,94;3,09;13,55;24,99;9,19;2,79;4,94;25,49;25,38;13,55;24,99;-9,83;2,79;4,94;25,49;25,38;2,52;1,98;-0,11;8,46;653252
IF_LD_R2_8502001_FS11_82, SUBCASE 1, Case 1 Time 1.;33;-11,36;-14,24;-9,47;-2,22;-3,56;1,78;3,03;13,41;24,66;8,96;2,74;4,78;25,20;25,20;13,41;24,66;-9,47;2,74;4,78;25,20;25,20;2,50;2,07;-0,13;8,40;653252
IF_LD_R4_8502001_FS11_-55, SUBCASE 1, Case 1 Time 1.;35;-9,93;-13,06;-8,97;-0,64;-3,14;1,61;1,98;14,07;21,10;7,54;2,48;4,02;21,82;22,18;14,07;21,10;-8,97;2,48;4,02;21,82;22,18;1,91;1,97;-0,02;7,39;653252
IF_LD_R4_8502001_FS11_23, SUBCASE 1, Case 1 Time 1.;34;-9,79;-12,68;-8,49;-0,86;-3,05;1,58;1,74;14,15;20,67;7,26;2,41;3,80;21,45;22,01;14,15;20,67;-8,49;2,41;3,80;21,45;22,01;1,86;2,10;-0,05;7,34;653252
IF_LD_R4_8502001_FS11_82, SUBCASE 1, Case 1 Time 1.;36;-9,67;-12,40;-8,13;-1,24;-2,98;1,65;1,65;14,23;20,33;7,04;2,37;3,64;21,16;21,90;14,23;20,33;-8,13;2,37;3,64;21,16;21,90;1,80;2,19;-0,07;7,30;653252
IF_TO_R4_8502005_DIS1_-55, SUBCASE 1, Case 1 Time 1.;47;-8,78;-11,92;-8,12;-0,61;-2,74;1,07;1,78;15,14;18,34;6,15;2,22;3,24;19,33;20,39;15,14;18,34;-8,12;2,22;3,24;19,33;20,39;1,43;2,12;0,05;6,80;653252
IF_CR_R1_8501009_FS11_-55, SUBCASE 1, Case 1 Time 1.;20;-8,36;-11,73;-8,43;-0,39;-2,60;1,13;2,31;18,01;18,06;6,64;2,23;2,85;18,16;20,03;18,01;18,06;-8,43;2,23;2,85;18,16;20,03;0,73;2,19;0,07;6,68;653252
IF_TO_R4_8502005_DIS1_23, SUBCASE 1, Case 1 Time 1.;46;-8,52;-11,37;-7,53;-0,23;-2,62;1,39;2,01;14,98;17,68;5,81;2,13;2,99;18,73;20,02;14,98;17,68;-7,53;2,13;2,99;18,73;20,02;1,35;2,21;0,02;6,67;653252
IF_CR_R1_8501009_FS11_23, SUBCASE 1, Case 1 Time 1.;19;-8,19;-11,32;-8,60;-0,39;-2,51;0,75;2,02;17,93;18,14;6,93;2,16;2,90;18,30;19,93;17,93;18,14;-8,60;2,16;2,90;18,30;19,93;0,76;2,40;0,05;6,64;653252
IF_CR_R1_8501009_FS11_82, SUBCASE 1, Case 1 Time 1.;21;-8,06;-11,02;-8,73;-0,44;-2,45;0,58;2,11;17,88;18,22;7,14;2,12;2,94;18,44;19,90;17,88;18,22;-8,73;2,12;2,94;18,44;19,90;0,62;2,34;0,03;6,63;651940
IF_TO_R4_8502005_DIS1_82, SUBCASE 1, Case 1 Time 1.;48;-8,31;-10,97;-7,38;-0,60;-2,53;1,26;1,64;14,86;17,17;5,54;2,06;2,81;18,27;19,75;14,86;17,17;-7,38;2,06;2,81;18,27;19,75;1,30;2,27;0,00;6,58;653252
IF_TO_R4_8502005_FS11_-55, SUBCASE 1, Case 1 Time 1.;29;-8,54;-11,43;-7,81;-0,58;-2,68;1,01;1,48;13,69;17,91;6,17;2,15;3,27;18,73;19,51;13,69;17,91;-7,81;2,15;3,27;18,73;19,51;1,48;1,93;0,00;6,50;653252
IF_TO_R4_8502005_FS11_23, SUBCASE 1, Case 1 Time 1.;28;-8,40;-11,06;-7,35;-0,46;-2,60;1,24;1,62;13,75;17,50;5,91;2,09;3,06;18,40;19,42;13,75;17,50;-7,35;2,09;3,06;18,40;19,42;1,42;2,05;-0,02;6,47;653252
IF_TO_R4_8502005_FS11_82, SUBCASE 1, Case 1 Time 1.;30;-8,30;-10,80;-7,01;-0,84;-2,54;1,46;1,81;13,81;17,20;5,71;2,05;2,91;18,15;19,36;13,81;17,20;-7,01;2,05;2,91;18,15;19,36;1,38;2,14;-0,04;6,45;653252
IF_IP2_R4_8502005_FS11_-55, SUBCASE 1, Case 1 Time 1.;26;-8,40;-11,32;-7,73;-0,56;-2,64;0,93;1,54;13,84;17,49;5,98;2,13;3,17;18,36;19,28;13,84;17,49;-7,73;2,13;3,17;18,36;19,28;1,40;1,95;0,01;6,43;653252
IF_IP2_R4_8502005_FS11_23, SUBCASE 1, Case 1 Time 1.;25;-8,27;-10,96;-7,26;-0,45;-2,56;1,24;1,76;13,88;17,09;5,73;2,07;2,97;18,04;19,20;13,88;17,09;-7,26;2,07;2,97;18,04;19,20;1,32;2,05;-0,02;6,40;653252
IF_IP2_R4_8502005_FS11_82, SUBCASE 1, Case 1 Time 1.;27;-8,17;-10,70;-7,05;-0,84;-2,50;1,28;1,66;13,92;16,79;5,53;2,02;2,83;17,79;19,16;13,92;16,79;-7,05;2,02;2,83;17,79;19,16;1,30;2,15;-0,04;6,39;653252
IF_IP2_R4_8502005_DIS1_-55, SUBCASE 1, Case 1 Time 1.;44;-8,17;-11,12;-7,59;-0,58;-2,56;0,90;1,59;13,93;16,89;5,71;2,08;3,03;17,80;18,82;13,93;16,89;-7,59;2,08;3,03;17,80;18,82;1,29;1,93;0,04;6,27;653252
IF_IP2_R4_8502005_DIS1_23, SUBCASE 1, Case 1 Time 1.;43;-7,85;-10,50;-6,95;-0,29;-2,42;1,23;1,82;13,66;16,11;5,33;1,97;2,76;17,07;18,32;13,66;16,11;-6,95;1,97;2,76;17,07;18,32;1,24;2,05;0,02;6,11;653252
IF_IP2_R4_8502005_DIS1_82, SUBCASE 1, Case 1 Time 1.;45;-7,60;-10,04;-6,76;-0,67;-2,32;1,06;1,39;13,46;15,51;5,03;1,89;2,56;16,51;17,95;13,46;15,51;-6,76;1,89;2,56;16,51;17,95;1,15;2,05;-0,01;5,98;653252
IF_IP1_R1_8502005_FS11_82, SUBCASE 1, Case 1 Time 1.;24;-3,15;-4,34;-3,98;-0,25;-0,93;0,10;1,49;8,17;8,80;3,57;0,81;1,44;8,97;9,83;8,17;8,80;-3,98;0,81;1,44;8,97;9,83;0,16;1,11;0,00;3,28;651940
IF_IP1_R1_8502005_FS11_23, SUBCASE 1, Case 1 Time 1.;22;-3,27;-4,63;-3,84;-0,19;-0,99;0,11;1,17;8,18;8,69;3,34;0,86;1,38;8,78;9,44;8,18;8,69;-3,84;0,86;1,38;8,78;9,44;0,21;1,06;0,02;3,15;651940
IF_IP1_R1_8502005_FS11_-55, SUBCASE 1, Case 1 Time 1.;23;-3,48;-5,02;-3,65;-0,37;-1,08;0,40;1,44;8,22;8,56;3,04;0,92;1,32;8,58;9,08;8,22;8,56;-3,65;0,92;1,32;8,58;9,08;0,27;0,94;0,05;3,03;651940
IF_IP2_JAM2M_IN_-55, SUBCASE 1, Case 1 Time 1.;95;-2,03;-2,56;-1,95;-0,78;-0,54;0,19;0,73;1,50;2,72;1,52;0,84;0,88;2,88;3,66;-2,03;2,72;-1,95;0,84;0,88;2,88;3,66;0,04;-0,23;0,09;1,22;651926
IF_LD_JAM2M_IN_-55, SUBCASE 1, Case 1 Time 1.;107;-2,18;-3,10;-1,09;-0,83;-0,50;0,15;0,55;0,73;0,59;1,35;1,02;1,19;3,10;3,59;-2,18;-3,10;1,35;1,02;1,19;3,10;3,59;-0,39;-0,83;0,03;1,20;651933
IF_IP1_JAM2M_OUT_82, SUBCASE 1, Case 1 Time 1.;93;-1,20;-1,69;-1,33;-0,93;-1,01;0,03;0,60;1,93;2,29;1,70;0,82;0,44;2,50;3,20;1,93;2,29;1,70;-0,93;-1,01;2,50;3,20;0,16;0,43;-0,11;1,07;651926
IF_TO_JAM2M_IN_-55, SUBCASE 1, Case 1 Time 1.;101;-1,65;-1,86;-1,47;-0,76;-0,38;0,19;0,70;1,29;1,60;1,35;0,86;0,92;2,15;2,81;-1,65;-1,86;-1,47;0,86;0,92;2,15;2,81;-0,05;-0,36;0,07;0,94;651933
IF_TO_JAM2M_OUT_82, SUBCASE 1, Case 1 Time 1.;105;-1,08;-1,64;-1,16;-0,77;-0,83;0,11;0,49;1,61;1,95;1,46;0,69;0,38;2,15;2,75;1,61;1,95;1,46;-0,77;-0,83;2,15;2,75;0,08;0,31;-0,07;0,92;651926
IF_IP2_JAM2M_IN_23, SUBCASE 1, Case 1 Time 1.;94;-1,55;-2,12;-1,44;-0,36;-0,44;0,12;0,36;1,19;2,22;1,09;0,38;0,45;2,26;2,74;-1,55;2,22;-1,44;0,38;0,45;2,26;2,74;-0,01;-0,11;0,06;0,91;653317
IF_LD_JAM2M_IN_82, SUBCASE 1, Case 1 Time 1.;108;-2,17;-2,35;-0,54;-0,13;-0,46;0,14;0,20;0,43;0,57;0,98;0,07;0,25;2,42;2,68;-2,17;-2,35;0,98;-0,13;-0,46;2,42;2,68;-0,48;-0,63;-0,02;0,89;653252
IF_LD_JAM2M_IN_23, SUBCASE 1, Case 1 Time 1.;106;-2,18;-2,44;-0,78;-0,41;-0,40;0,03;0,21;0,31;0,29;1,14;0,48;0,64;2,44;2,63;-2,18;-2,44;1,14;0,48;0,64;2,44;2,63;-0,43;-0,69;0,00;0,88;653252
IF_IP1_JAM2M_OUT_23, SUBCASE 1, Case 1 Time 1.;91;-0,56;-1,25;-0,99;-0,53;-0,60;0,05;0,35;1,51;1,93;1,30;0,50;0,37;1,99;2,45;1,51;1,93;1,30;-0,53;-0,60;1,99;2,45;0,30;0,53;-0,08;0,82;653317
IF_IP2_JAM2M_OUT_82, SUBCASE 1, Case 1 Time 1.;99;-0,88;-0,58;-1,10;-0,73;-0,82;0,16;0,78;1,22;1,64;0,85;0,65;0,31;1,64;2,43;1,22;1,64;-1,10;-0,73;-0,82;1,64;2,43;0,14;0,43;-0,06;0,81;651933
IF_TO_JAM2M_OUT_23, SUBCASE 1, Case 1 Time 1.;103;-0,72;-1,34;-0,85;-0,38;-0,42;0,14;0,27;1,27;1,69;1,12;0,37;0,33;1,74;2,13;1,27;1,69;1,12;-0,38;-0,42;1,74;2,13;0,12;0,21;-0,05;0,71;653317
IF_IP2_JAM2M_IN_82, SUBCASE 1, Case 1 Time 1.;96;-1,30;-1,79;-1,06;-0,09;-0,37;0,05;0,09;1,15;1,83;0,80;0,33;0,31;1,91;2,12;-1,30;1,83;-1,06;0,33;-0,37;1,91;2,12;-0,06;-0,05;0,04;0,71;653317
IF_TO_JAM2M_IN_23, SUBCASE 1, Case 1 Time 1.;100;-1,10;-1,42;-0,96;-0,35;-0,28;0,08;0,34;0,47;1,12;0,76;0,32;0,37;1,49;1,82;-1,10;-1,42;-0,96;-0,35;0,37;1,49;1,82;-0,10;-0,23;0,04;0,61;653317
IF_IP1_JAM2M_OUT_-55, SUBCASE 1, Case 1 Time 1.;92;-0,42;-0,68;-0,54;-0,25;-0,10;0,08;0,19;1,07;1,47;0,76;0,09;0,27;1,50;1,62;1,07;1,47;0,76;-0,25;0,27;1,50;1,62;0,27;0,27;-0,06;0,54;653317
IF_TO_JAM2M_OUT_-55, SUBCASE 1, Case 1 Time 1.;104;-0,79;-0,96;-0,50;-0,24;-0,17;0,04;0,14;0,99;1,38;0,67;0,14;0,26;1,43;1,46;0,99;1,38;0,67;-0,24;0,26;1,43;1,46;0,17;0,10;-0,03;0,49;653317
IF_TO_JAM2M_IN_82, SUBCASE 1, Case 1 Time 1.;102;-0,80;-1,13;-0,59;-0,10;-0,22;0,03;0,04;0,33;0,74;0,45;0,20;0,12;1,14;1,23;-0,80;-1,13;-0,59;0,20;-0,22;1,14;1,23;-0,15;-0,17;0,03;0,41;653317
IF_IP2_JAM2M_OUT_23, SUBCASE 1, Case 1 Time 1.;97;-0,26;-0,29;-0,55;-0,34;-0,41;0,13;0,48;0,78;0,97;0,52;0,33;0,17;0,99;1,22;0,78;0,97;-0,55;-0,34;-0,41;0,99;1,22;0,18;0,33;-0,04;0,41;651933
IF_IP2_JAM2M_OUT_-55, SUBCASE 1, Case 1 Time 1.;98;-0,12;-0,15;-0,16;-0,09;-0,06;0,14;0,10;0,89;0,64;0,18;0,18;0,14;1,05;0,79;0,89;0,64;0,18;0,18;0,14;1,05;0,79;0,23;0,21;-0,02;0,26;651947
Ref CID;Coord Material;;;;;;;;;;;;;;;;;;;;;;;;;;
