LC_Name;LC_ID;qxMin;qyMin;qxyMin;qxzMin;qyzMin;qshearMin;qvonmisesMin;qxMax;qyMax;qxyMax;qxzMax;qyzMax;qshearMax;qvonmisesMax;qxAbsMax;qyAbsMax;qxyAbsMax;qxzAbsMax;qyzAbsMax;qshearAbsMax;qvonmisesAbsMax;qxAverage;qyAverage;qxyAverage;sigmaVonMisesMax;CriticalElemID
IF_IP2_R4_8502005_JAM2M_IN_-55, SUBCASE 1, Case 1 Time 1.;113;-2,38;158,37;-63,14;-14,63;-12,47;158,39;162,63;21,32;459,36;42,79;18,37;18,37;459,68;452,96;21,32;459,36;-63,14;18,37;18,37;459,68;452,96;8,05;274,35;-0,69;64,71;651173
IF_IP2_R4_8502005_JAM2M_IN_23, SUBCASE 1, Case 1 Time 1.;112;-2,89;158,53;-62,35;-14,60;-12,72;158,56;163,29;21,02;456,56;42,88;18,24;18,15;456,89;450,22;21,02;456,56;-62,35;18,24;18,15;456,89;450,22;7,69;266,42;-0,04;64,32;651173
IF_IP2_R4_8502005_JAM2M_IN_82, SUBCASE 1, Case 1 Time 1.;114;-3,28;158,61;-61,77;-14,58;-12,91;158,65;163,75;20,80;454,53;42,94;18,14;18,00;454,85;448,23;20,80;454,53;-61,77;18,14;18,00;454,85;448,23;7,81;272,43;0,24;64,03;651173
IF_CR_R1_8501009_JAM2_-55, SUBCASE 1, Case 1 Time 1.;74;-4,03;175,35;-56,54;-18,31;-11,20;176,36;190,91;23,46;430,58;38,03;22,91;20,71;430,84;425,06;23,46;430,58;-56,54;22,91;20,71;430,84;425,06;8,09;300,91;2,43;60,72;651173
IF_CR_R1_8501009_JAM2_23, SUBCASE 1, Case 1 Time 1.;73;-4,32;171,84;-55,49;-18,23;-11,39;172,83;186,99;23,88;425,84;37,94;22,71;20,45;426,09;420,39;23,88;425,84;-55,49;22,71;20,45;426,09;420,39;7,83;295,03;2,93;60,06;651173
IF_CR_R1_8501009_JAM2_82, SUBCASE 1, Case 1 Time 1.;75;-4,68;169,20;-54,70;-18,16;-11,53;170,17;184,05;24,21;422,27;37,87;22,56;20,26;422,52;416,88;24,21;422,27;-54,70;22,56;20,26;422,52;416,88;7,80;296,91;3,37;59,55;651173
IF_TO_R4_8502005_JAM2M_IN_INSF_-55, SUBCASE 1, Case 1 Time 1.;119;-1,97;140,73;-57,89;-13,20;-11,35;140,74;144,57;19,52;420,78;39,37;16,65;17,06;421,08;414,86;19,52;420,78;-57,89;16,65;17,06;421,08;414,86;7,38;249,17;-0,72;59,27;651173
IF_TO_R4_8502005_JAM2M_IN_INSF_23, SUBCASE 1, Case 1 Time 1.;118;-2,49;141,06;-57,37;-13,20;-11,66;141,08;145,41;19,32;419,85;39,65;16,56;16,89;420,15;413,96;19,32;419,85;-57,37;16,56;16,89;420,15;413,96;7,18;246,72;-0,10;59,14;651173
IF_TO_R4_8502005_JAM2M_IN_INSF_82, SUBCASE 1, Case 1 Time 1.;120;-2,88;141,26;-57,00;-13,20;-11,89;141,29;146,01;19,17;419,19;39,85;16,49;16,76;419,49;413,32;19,17;419,19;-57,00;16,49;16,76;419,49;413,32;7,19;248,52;0,16;59,05;651173
IF_CR_R1_8501009_-55, SUBCASE 1, Case 1 Time 1.;2;-4,06;165,15;-53,34;-17,89;-10,54;166,11;179,86;23,27;409,00;36,00;22,44;20,34;409,25;403,80;23,27;409,00;-53,34;22,44;20,34;409,25;403,80;7,88;290,30;2,75;57,69;651173
IF_CR_R1_8501009_23, SUBCASE 1, Case 1 Time 1.;1;-4,34;163,00;-52,71;-17,86;-11,03;163,94;177,42;23,71;407,13;36,18;22,31;20,13;407,37;401,96;23,71;407,13;-52,71;22,31;20,13;407,37;401,96;11,49;279,56;3,47;57,42;651173
IF_CR_R1_8501009_82, SUBCASE 1, Case 1 Time 1.;3;-4,70;161,37;-52,24;-17,84;-11,49;162,30;175,57;24,06;405,71;36,31;22,20;19,98;405,95;400,57;24,06;405,71;-52,24;22,20;19,98;405,95;400,57;7,53;288,82;3,61;57,22;651173
IF_LD_R4_8502001_JAM2M_INSF_23, SUBCASE 1, Case 1 Time 1.;127;-1,95;119,35;-54,05;-11,68;-10,87;119,37;123,36;18,19;393,45;37,62;14,71;15,63;393,74;387,82;18,19;393,45;-54,05;14,71;15,63;393,74;387,82;6,74;225,85;-0,57;55,40;651173
IF_LD_R4_8502001_JAM2M_INSF_82, SUBCASE 1, Case 1 Time 1.;129;-2,35;119,63;-53,72;-11,69;-11,11;119,65;124,06;18,06;393,13;37,86;14,65;15,51;393,41;387,51;18,06;393,13;-53,72;14,65;15,51;393,41;387,51;6,68;226,19;-0,21;55,36;651173
IF_LD_R4_8502001_JAM2M_INSF_-55, SUBCASE 1, Case 1 Time 1.;128;-1,41;118,77;-53,79;-11,60;-10,41;118,77;122,17;18,12;389,12;36,84;14,70;15,67;389,41;383,54;18,12;389,12;-53,79;14,70;15,67;389,41;383,54;6,80;224,55;-1,04;54,79;651173
IF_LD_R2_8502001_JAM2M_INSF_23, SUBCASE 1, Case 1 Time 1.;124;-1,79;109,57;-50,76;-10,82;-10,17;109,58;113,35;17,06;369,31;35,33;13,68;14,81;369,58;364,00;17,06;369,31;-50,76;13,68;14,81;369,58;364,00;6,26;210,00;-0,51;52,00;651173
IF_LD_R2_8502001_JAM2M_INSF_-55, SUBCASE 1, Case 1 Time 1.;125;-1,26;108,88;-51,10;-10,79;-9,82;108,89;112,11;17,21;368,96;34,92;13,73;14,95;369,23;363,64;17,21;368,96;-51,10;13,73;14,95;369,23;363,64;6,42;210,85;-1,13;51,95;651173
IF_LD_R2_8502001_JAM2M_INSF_82, SUBCASE 1, Case 1 Time 1.;126;-2,19;109,97;-50,38;-10,83;-10,41;109,99;114,17;16,91;368,65;35,53;13,63;14,69;368,92;363,36;16,91;368,65;-50,38;13,63;14,69;368,92;363,36;6,24;210,93;-0,24;51,91;651173
IF_IP2_R4_8502005_JAM2_-55, SUBCASE 1, Case 1 Time 1.;80;-2,51;147,13;-47,20;-13,01;-9,40;147,98;150,25;15,82;352,01;31,96;16,53;16,29;352,24;347,27;15,82;352,01;-47,20;16,53;16,29;352,24;347,27;6,37;227,34;0,81;49,61;651173
IF_IP2_R4_8502005_JAM2_23, SUBCASE 1, Case 1 Time 1.;79;-3,02;144,56;-46,45;-12,99;-9,66;145,39;149,55;15,85;349,46;32,07;16,41;16,07;349,68;344,77;15,85;349,46;-46,45;16,41;16,07;349,68;344,77;6,15;223,40;1,37;49,25;651173
IF_IP2_R4_8502005_DIS3_-55, SUBCASE 1, Case 1 Time 1.;62;-2,80;143,91;-46,26;-13,82;-9,14;144,74;155,68;16,95;348,03;31,10;17,53;16,84;348,25;343,44;16,95;348,03;-46,26;17,53;16,84;348,25;343,44;6,45;233,63;1,30;49,06;651173
IF_IP2_R4_8502005_JAM2_82, SUBCASE 1, Case 1 Time 1.;81;-3,42;142,64;-45,89;-12,97;-9,86;143,46;149,03;16,24;347,57;32,16;16,32;15,92;347,80;342,92;16,24;347,57;-45,89;16,32;15,92;347,80;342,92;6,14;225,56;1,73;48,99;651173
IF_IP2_R4_8502005_DIS3_23, SUBCASE 1, Case 1 Time 1.;61;-3,19;141,93;-45,69;-13,81;-9,44;142,75;154,36;17,44;346,67;31,32;17,42;16,64;346,89;342,11;17,44;346,67;-45,69;17,42;16,64;346,89;342,11;6,19;228,11;1,80;48,87;651173
IF_IP2_R4_8502005_DIS3_82, SUBCASE 1, Case 1 Time 1.;63;-3,58;140,46;-45,27;-13,80;-9,66;141,27;152,69;17,81;345,66;31,49;17,34;16,50;345,88;341,13;17,81;345,66;-45,27;17,34;16,50;345,88;341,13;6,25;232,63;2,17;48,73;651173
IF_TO_R4_8502005_JAM2_-55, SUBCASE 1, Case 1 Time 1.;83;-2,22;138,60;-44,43;-12,07;-8,78;139,40;139,91;14,89;330,39;30,00;15,38;15,38;330,61;325,92;14,89;330,39;-44,43;15,38;15,38;330,61;325,92;5,99;212,05;0,58;46,56;651173
IF_TO_R4_8502005_JAM2_23, SUBCASE 1, Case 1 Time 1.;82;-2,72;136,14;-43,72;-12,06;-9,05;136,93;139,30;14,62;328,10;30,13;15,27;15,17;328,31;323,67;14,62;328,10;-43,72;15,27;15,17;328,31;323,67;5,87;211,60;1,14;46,24;651173
IF_TO_R4_8502005_JAM2_82, SUBCASE 1, Case 1 Time 1.;84;-3,11;134,32;-43,19;-12,04;-9,26;135,10;138,85;14,95;326,42;30,23;15,19;15,02;326,63;322,02;14,95;326,42;-43,19;15,19;15,02;326,63;322,02;5,76;210,40;1,50;46,00;651173
IF_TO_R4_8502005_DIS3_-55, SUBCASE 1, Case 1 Time 1.;65;-2,46;131,56;-42,26;-12,43;-8,32;132,32;140,51;15,05;317,35;28,46;15,85;15,50;317,55;313,13;15,05;317,35;-42,26;15,85;15,50;317,55;313,13;5,88;211,43;1,08;44,73;651173
IF_TO_R4_8502005_DIS3_23, SUBCASE 1, Case 1 Time 1.;64;-2,84;129,52;-41,67;-12,42;-8,62;130,26;139,98;15,53;315,83;28,67;15,74;15,30;316,03;311,65;15,53;315,83;-41,67;15,74;15,30;316,03;311,65;5,77;211,42;1,62;44,52;651173
IF_TO_R4_8502005_DIS3_82, SUBCASE 1, Case 1 Time 1.;66;-3,23;128,00;-41,24;-12,40;-8,84;128,74;139,13;15,90;314,73;28,83;15,65;15,15;314,93;310,57;15,90;314,73;-41,24;15,65;15,15;314,93;310,57;5,67;210,09;1,96;44,37;651173
IF_LD_R2_8502001_82, SUBCASE 1, Case 1 Time 1.;15;-2,75;127,06;-41,88;-11,04;-8,93;127,08;129,55;14,01;313,90;29,16;13,96;14,14;314,11;309,62;14,01;313,90;-41,88;13,96;14,14;314,11;309,62;5,48;197,20;0,98;44,23;651173
IF_LD_R2_8502001_23, SUBCASE 1, Case 1 Time 1.;13;-2,35;126,39;-42,16;-11,01;-8,68;126,40;129,41;14,12;313,84;28,90;13,98;14,24;314,05;309,55;14,12;313,84;-42,16;13,98;14,24;314,05;309,55;5,54;196,99;0,66;44,22;651173
IF_LD_R2_8502001_-55, SUBCASE 1, Case 1 Time 1.;14;-1,86;125,44;-42,55;-10,97;-8,33;125,46;128,74;14,28;313,82;28,55;14,02;14,38;314,04;309,51;14,28;313,82;-42,55;14,02;14,38;314,04;309,51;5,65;196,77;0,09;44,22;651173
IF_IP2_R4_8502005_-55, SUBCASE 1, Case 1 Time 1.;8;-2,53;129,13;-41,54;-12,33;-8,29;129,88;139,58;15,14;313,60;28,25;15,74;15,42;313,80;309,44;15,14;313,60;-41,54;15,74;15,42;313,80;309,44;5,76;209,63;1,32;44,21;651173
IF_IP2_R4_8502005_23, SUBCASE 1, Case 1 Time 1.;7;-3,04;127,37;-41,04;-12,34;-8,61;128,10;138,45;15,66;312,77;28,53;15,66;15,25;312,96;308,64;15,66;312,77;-41,04;15,66;15,25;312,96;308,64;5,58;206,78;1,84;44,09;651173
IF_IP2_R4_8502005_82, SUBCASE 1, Case 1 Time 1.;9;-3,44;126,05;-40,67;-12,34;-8,85;126,77;136,94;16,05;312,16;28,73;15,60;15,12;312,36;308,05;16,05;312,16;-40,67;15,60;15,12;312,36;308,05;5,57;209,16;2,20;44,01;651173
IF_LD_R4_8502001_-55, SUBCASE 1, Case 1 Time 1.;17;-2,11;129,50;-41,52;-11,45;-8,17;130,24;132,10;13,92;308,89;27,86;14,62;14,65;309,09;304,72;13,92;308,89;-41,52;14,62;14,65;309,09;304,72;5,64;199,79;0,53;43,53;651173
IF_LD_R4_8502001_23, SUBCASE 1, Case 1 Time 1.;16;-2,53;127,98;-41,11;-11,48;-8,51;128,72;132,19;13,96;308,66;28,18;14,57;14,50;308,86;304,51;13,96;308,66;-41,11;14,57;14,50;308,86;304,51;5,54;199,81;1,04;43,50;651173
IF_LD_R4_8502001_82, SUBCASE 1, Case 1 Time 1.;18;-2,93;126,86;-40,80;-11,51;-8,75;127,59;132,26;14,38;308,52;28,42;14,54;14,40;308,72;304,38;14,38;308,52;-40,80;14,54;14,40;308,72;304,38;5,47;199,99;1,41;43,48;651173
IF_LD_R4_8502001_DIS3_-55, SUBCASE 1, Case 1 Time 1.;71;-2,16;127,02;-40,75;-11,50;-7,98;127,75;131,45;13,65;303,80;27,28;14,70;14,64;304,00;299,72;13,65;303,80;-40,75;14,70;14,64;304,00;299,72;5,58;198,45;0,67;42,82;651173
IF_LD_R4_8502001_DIS3_23, SUBCASE 1, Case 1 Time 1.;70;-2,56;124,96;-40,16;-11,49;-8,28;125,68;130,96;14,07;302,27;27,49;14,59;14,44;302,46;298,22;14,07;302,27;-40,16;14,59;14,44;302,46;298,22;5,40;195,68;1,18;42,60;651173
IF_LD_R4_8502001_DIS3_82, SUBCASE 1, Case 1 Time 1.;72;-2,95;123,44;-39,72;-11,48;-8,50;124,15;130,60;14,44;301,16;27,64;14,51;14,30;301,36;297,14;14,44;301,16;-39,72;14,51;14,30;301,36;297,14;5,37;197,28;1,55;42,45;651173
IF_TO_R4_8502005_-55, SUBCASE 1, Case 1 Time 1.;11;-2,27;122,83;-39,47;-11,48;-7,82;123,53;130,61;13,89;296,70;26,74;14,70;14,59;296,89;292,74;13,89;296,70;-39,47;14,70;14,59;296,89;292,74;5,46;196,61;1,03;41,82;651173
IF_TO_R4_8502005_23, SUBCASE 1, Case 1 Time 1.;10;-2,73;121,10;-38,98;-11,50;-8,14;121,80;130,44;14,41;295,97;27,02;14,62;14,42;296,16;292,03;14,41;295,97;-38,98;14,62;14,42;296,16;292,03;5,36;196,80;1,57;41,72;651173
IF_TO_R4_8502005_82, SUBCASE 1, Case 1 Time 1.;12;-3,13;119,82;-38,62;-11,50;-8,38;120,51;130,19;14,81;295,45;27,23;14,57;14,29;295,63;291,53;14,81;295,45;-38,62;14,57;14,29;295,63;291,53;5,27;196,15;1,91;41,65;651173
IF_LD_R4_8502001_JAM2_-55, SUBCASE 1, Case 1 Time 1.;89;-2,10;121,42;-38,97;-11,05;-7,67;122,12;126,46;13,13;291,14;26,17;14,14;14,16;291,34;287,24;13,13;291,14;-38,97;14,14;14,16;291,34;287,24;5,35;190,71;0,70;41,03;651173
IF_LD_R4_8502001_JAM2_23, SUBCASE 1, Case 1 Time 1.;88;-2,51;119,52;-38,43;-11,08;-7,98;120,21;126,41;13,70;290,15;26,42;14,10;14,00;290,33;286,27;13,70;290,15;-38,43;14,10;14,00;290,33;286,27;5,22;189,86;1,24;40,90;651173
IF_LD_R4_8502001_JAM2_82, SUBCASE 1, Case 1 Time 1.;90;-2,91;118,13;-38,04;-11,10;-8,21;118,81;126,39;14,13;289,45;26,60;14,06;13,89;289,64;285,60;14,13;289,45;-38,04;14,06;13,89;289,64;285,60;5,16;190,51;1,61;40,80;651173
IF_CR_R1_8501009_DIS3_-55, SUBCASE 1, Case 1 Time 1.;56;-2,70;114,86;-37,09;-12,09;-7,39;115,52;125,07;15,52;283,74;25,03;15,49;15,00;283,92;280,09;15,52;283,74;-37,09;15,49;15,00;283,92;280,09;5,30;198,57;1,76;40,01;651173
IF_CR_R1_8501009_DIS3_23, SUBCASE 1, Case 1 Time 1.;55;-3,17;112,80;-36,50;-12,06;-7,69;113,45;122,72;15,98;282,15;25,23;15,37;14,78;282,32;278,53;15,98;282,15;-36,50;15,37;14,78;282,32;278,53;5,07;193,59;2,23;39,79;651173
IF_CR_R1_8501009_DIS3_82, SUBCASE 1, Case 1 Time 1.;57;-3,55;111,26;-36,05;-12,04;-7,91;111,90;120,97;16,33;280,95;25,39;15,27;14,63;281,12;277,36;16,33;280,95;-36,05;15,27;14,63;281,12;277,36;5,10;197,20;2,64;39,62;651173
IF_CR_R1_8501009_DIS1_-55, SUBCASE 1, Case 1 Time 1.;38;-2,63;111,39;-35,97;-11,80;-7,16;112,03;121,29;15,11;275,46;24,32;15,14;14,66;275,63;271,91;15,11;275,46;-35,97;15,14;14,66;275,63;271,91;5,17;193,19;1,77;38,84;651173
IF_CR_R1_8501009_DIS1_23, SUBCASE 1, Case 1 Time 1.;37;-3,07;109,37;-35,38;-11,77;-7,46;109,99;118,99;15,56;273,91;24,53;15,01;14,44;274,08;270,40;15,56;273,91;-35,38;15,01;14,44;274,08;270,40;4,96;188,71;2,22;38,63;651173
IF_LD_R2_8502001_FS11_-55, SUBCASE 1, Case 1 Time 1.;32;-1,27;48,16;-37,76;-6,19;-7,16;48,17;52,67;12,93;274,59;28,32;8,21;10,97;274,81;270,30;12,93;274,59;-37,76;8,21;10,97;274,81;270,30;4,43;138,98;-0,28;38,61;651173
IF_CR_R1_8501009_DIS1_82, SUBCASE 1, Case 1 Time 1.;39;-3,45;107,86;-34,95;-11,75;-7,71;108,48;117,27;15,91;272,77;24,69;14,91;14,28;272,94;269,28;15,91;272,77;-34,95;14,91;14,28;272,94;269,28;4,96;191,79;2,63;38,47;651173
IF_IP2_R4_8502005_JAM2M_OUT_-55, SUBCASE 1, Case 1 Time 1.;116;-2,64;109,88;-35,50;-11,68;-7,09;110,52;119,65;15,09;272,48;24,12;15,00;14,57;272,65;268,97;15,09;272,48;-35,50;15,00;14,57;272,65;268,97;5,11;191,67;1,82;38,42;651173
IF_LD_R2_8502001_FS11_23, SUBCASE 1, Case 1 Time 1.;31;-1,79;48,67;-37,16;-6,19;-7,47;48,70;53,83;12,66;273,04;28,51;8,12;10,76;273,26;268,79;12,66;273,04;-37,16;8,12;10,76;273,26;268,79;4,21;135,69;0,27;38,40;651173
IF_LD_R2_8502001_FS11_82, SUBCASE 1, Case 1 Time 1.;33;-2,18;49,02;-36,72;-6,18;-7,70;49,07;54,71;12,47;271,96;28,66;8,06;10,62;272,18;267,75;12,47;271,96;-36,72;8,06;10,62;272,18;267,75;4,22;138,11;0,61;38,25;651173
IF_IP2_R4_8502005_JAM2M_OUT_23, SUBCASE 1, Case 1 Time 1.;115;-3,13;107,40;-34,78;-11,66;-7,37;108,02;116,85;15,61;270,13;24,24;14,89;14,36;270,29;266,67;15,61;270,13;-34,78;14,89;14,36;270,29;266,67;5,07;193,54;2,29;38,10;651173
IF_IP2_R4_8502005_JAM2M_OUT_82, SUBCASE 1, Case 1 Time 1.;117;-3,52;105,57;-34,24;-11,65;-7,74;106,17;114,78;16,00;268,43;24,34;14,81;14,21;268,58;265,01;16,00;268,43;-34,24;14,81;14,21;268,58;265,01;4,88;189,96;2,75;37,86;651173
IF_LD_R2_8502001_JAM2_-55, SUBCASE 1, Case 1 Time 1.;86;-1,81;109,65;-35,18;-9,78;-6,90;110,28;112,75;11,77;262,45;23,67;12,60;12,88;262,63;258,90;11,77;262,45;-35,18;12,60;12,88;262,63;258,90;4,80;170,42;0,55;36,99;651173
IF_LD_R2_8502001_JAM2_23, SUBCASE 1, Case 1 Time 1.;85;-2,26;107,70;-34,63;-9,81;-7,21;108,32;112,63;12,06;261,34;23,91;12,54;12,71;261,51;257,82;12,06;261,34;-34,63;12,54;12,71;261,51;257,82;4,73;171,57;1,10;36,83;651173
IF_LD_R2_8502001_JAM2_82, SUBCASE 1, Case 1 Time 1.;87;-2,66;106,27;-34,22;-9,83;-7,44;106,88;112,56;12,48;260,55;24,09;12,50;12,59;260,72;257,06;12,48;260,55;-34,22;12,50;12,59;260,72;257,06;4,61;169,96;1,47;36,72;651173
IF_TO_R4_8502005_JAM2M_OUT_-55, SUBCASE 1, Case 1 Time 1.;122;-2,38;105,30;-33,97;-10,89;-6,73;105,90;114,66;13,86;259,11;22,91;14,02;13,78;259,27;255,75;13,86;259,11;-33,97;14,02;13,78;259,27;255,75;4,85;180,13;1,46;36,54;651173
IF_TO_R4_8502005_JAM2M_OUT_23, SUBCASE 1, Case 1 Time 1.;121;-2,82;102,85;-33,26;-10,88;-7,01;103,44;111,90;14,38;256,84;23,04;13,91;13,57;256,99;253,53;14,38;256,84;-33,26;13,91;13,57;256,99;253,53;4,81;181,62;1,94;36,22;651173
IF_TO_R4_8502005_JAM2M_OUT_82, SUBCASE 1, Case 1 Time 1.;123;-3,22;101,03;-32,73;-10,87;-7,22;101,61;109,86;14,77;255,17;23,14;13,84;13,42;255,32;251,89;14,77;255,17;-32,73;13,84;13,42;255,32;251,89;4,63;178,50;2,39;35,98;651173
IF_LD_R2_8502001_DIS3_-55, SUBCASE 1, Case 1 Time 1.;68;-1,32;90,40;-29,77;-7,84;-5,73;90,41;91,79;9,95;220,57;20,00;10,19;10,84;220,72;217,52;9,95;220,57;-29,77;10,19;10,84;220,72;217,52;4,01;139,56;0,19;31,07;651173
IF_LD_R2_8502001_DIS3_23, SUBCASE 1, Case 1 Time 1.;67;-1,78;90,70;-29,20;-7,83;-6,04;90,72;91,37;9,73;219,25;20,24;10,09;10,64;219,40;216,24;9,73;219,25;-29,20;10,09;10,64;219,40;216,24;3,95;141,39;0,75;30,89;651173
IF_LD_R2_8502001_DIS3_82, SUBCASE 1, Case 1 Time 1.;69;-2,17;89,51;-28,79;-7,82;-6,28;90,02;91,07;9,70;218,30;20,41;10,01;10,49;218,45;215,32;9,70;218,30;-28,79;10,01;10,49;218,45;215,32;3,80;138,39;1,08;30,76;651173
IF_IP1_R1_8502005_JAM2_-55, SUBCASE 1, Case 1 Time 1.;77;-1,83;88,92;-28,63;-8,70;-5,64;89,42;96,77;10,72;217,07;19,39;11,30;11,52;217,21;214,20;10,72;217,07;-28,63;11,30;11,52;217,21;214,20;4,01;146,90;1,03;30,60;651173
IF_IP1_R1_8502005_JAM2_23, SUBCASE 1, Case 1 Time 1.;76;-2,34;85,98;-27,77;-8,62;-5,89;86,47;93,47;11,16;213,59;19,42;11,13;11,25;213,72;210,78;11,16;213,59;-27,77;11,13;11,25;213,72;210,78;3,99;150,35;1,63;30,11;651173
IF_IP1_R1_8502005_JAM2_82, SUBCASE 1, Case 1 Time 1.;78;-2,72;83,79;-27,12;-8,57;-6,08;84,27;91,03;11,49;211,00;19,45;11,00;11,04;211,13;208,24;11,49;211,00;-27,12;11,00;11,04;211,13;208,24;3,74;143,65;1,94;29,75;651173
IF_IP1_R1_8502005_-55, SUBCASE 1, Case 1 Time 1.;5;-1,82;80,42;-25,95;-8,27;-5,12;80,88;87,56;10,45;198,26;17,58;10,79;10,94;198,39;195,68;10,45;198,26;-25,95;10,79;10,94;198,39;195,68;3,70;137,44;1,19;27,95;651173
IF_IP1_R1_8502005_23, SUBCASE 1, Case 1 Time 1.;4;-2,33;78,43;-25,38;-8,25;-5,43;78,87;85,28;10,92;196,86;17,81;10,67;10,73;196,98;194,31;10,92;196,86;-25,38;10,67;10,73;196,98;194,31;3,71;141,92;1,77;27,76;651173
IF_IP1_R1_8502005_82, SUBCASE 1, Case 1 Time 1.;6;-2,72;76,94;-24,95;-8,22;-5,66;77,38;83,60;11,28;195,82;17,99;10,58;10,57;195,94;193,29;11,28;195,82;-24,95;10,58;10,57;195,94;193,29;3,48;135,92;2,06;27,61;651173
IF_LD_R2_8502001_DIS1_INSF_-55, SUBCASE 1, Case 1 Time 1.;50;-1,09;77,38;-25,82;-6,73;-4,92;77,39;79,11;8,62;191,17;17,37;8,80;9,51;191,30;188,51;8,62;191,17;-25,82;8,80;9,51;191,30;188,51;3,47;120,13;0,12;26,93;651173
IF_LD_R2_8502001_DIS1_INSF_23, SUBCASE 1, Case 1 Time 1.;49;-1,51;76,67;-24,96;-6,63;-5,18;76,68;77,71;8,30;187,65;17,42;8,59;9,21;187,78;185,06;8,30;187,65;-24,96;8,59;9,21;187,78;185,06;3,24;115,76;0,65;26,44;651173
IF_LD_R2_8502001_DIS1_INSF_82, SUBCASE 1, Case 1 Time 1.;51;-1,90;75,91;-24,42;-6,58;-5,39;76,34;77,02;8,19;185,80;17,52;8,47;9,01;185,93;183,25;8,19;185,80;-24,42;8,47;9,01;185,93;183,25;3,21;117,18;1,01;26,18;651173
IF_LD_R4_8502001_FS11_-55, SUBCASE 1, Case 1 Time 1.;35;-0,67;40,53;-22,24;-4,34;-4,16;40,54;42,47;7,57;163,13;16,22;5,81;7,31;163,25;160,64;7,57;163,13;-22,24;5,81;7,31;163,25;160,64;2,77;88,97;-0,04;22,95;651173
IF_LD_R4_8502001_FS11_23, SUBCASE 1, Case 1 Time 1.;34;-1,19;41,07;-21,63;-4,33;-4,48;41,09;43,59;7,30;161,58;16,42;5,72;7,10;161,70;159,13;7,30;161,58;-21,63;5,72;7,10;161,70;159,13;2,70;90,12;0,49;22,73;651173
IF_LD_R4_8502001_FS11_82, SUBCASE 1, Case 1 Time 1.;36;-1,59;41,45;-21,19;-4,33;-4,71;41,48;44,44;7,10;160,50;16,57;5,66;6,96;160,62;158,09;7,10;160,50;-21,19;5,66;6,96;160,62;158,09;2,56;87,97;0,86;22,58;651173
IF_IP1_R1_8502005_JAM2M_OUT_-55, SUBCASE 1, Case 1 Time 1.;110;-2,22;30,50;-10,20;-5,88;-4,07;30,68;33,50;9,05;143,84;15,03;7,84;7,41;143,98;143,26;9,05;143,84;15,03;7,84;7,41;143,98;143,26;1,84;82,22;2,04;20,47;651176
IF_IP1_R1_8502005_JAM2M_OUT_23, SUBCASE 1, Case 1 Time 1.;109;-2,75;27,81;-9,41;-5,82;-4,73;27,97;30,45;9,51;142,50;15,44;7,69;7,14;142,64;142,03;9,51;142,50;15,44;7,69;7,14;142,64;142,03;1,63;77,81;2,47;20,29;651176
IF_IP1_R1_8502005_JAM2M_OUT_82, SUBCASE 1, Case 1 Time 1.;111;-3,16;25,80;-8,82;-5,78;-5,21;25,95;28,20;9,86;141,45;15,74;7,57;6,94;141,59;141,07;9,86;141,45;15,74;7,57;6,94;141,59;141,07;1,59;79,83;2,94;20,15;651176
IF_IP1_R1_8502005_DIS3_-55, SUBCASE 1, Case 1 Time 1.;59;-1,11;56,12;-18,08;-5,56;-3,46;56,44;61,12;6,81;137,25;12,19;7,36;7,77;137,34;135,43;6,81;137,25;-18,08;7,36;7,77;137,34;135,43;2,56;93,64;0,67;19,35;651173
IF_IP1_R1_8502005_DIS3_23, SUBCASE 1, Case 1 Time 1.;58;-1,63;54,20;-17,53;-5,54;-3,78;54,51;58,92;7,29;136,05;12,45;7,25;7,56;136,14;134,26;7,29;136,05;-17,53;7,25;7,56;136,14;134,26;2,53;96,57;1,23;19,18;651173
IF_IP1_R1_8502005_DIS3_82, SUBCASE 1, Case 1 Time 1.;60;-2,02;52,78;-17,13;-5,52;-4,02;53,08;57,30;7,65;135,18;12,64;7,17;7,40;135,26;133,41;7,65;135,18;-17,13;7,17;7,40;135,26;133,41;2,35;92,37;1,55;19,06;651173
IF_IP1_R1_8502005_DIS1_-55, SUBCASE 1, Case 1 Time 1.;41;-1,07;54,95;-17,70;-5,45;-3,37;55,26;59,84;6,64;134,30;11,94;7,21;7,62;134,39;132,52;6,64;134,30;-17,70;7,21;7,62;134,39;132,52;2,51;91,60;0,65;18,93;651173
IF_IP1_R1_8502005_DIS1_23, SUBCASE 1, Case 1 Time 1.;40;-1,58;52,98;-17,13;-5,42;-3,69;53,28;57,59;7,11;132,99;12,18;7,09;7,40;133,07;131,23;7,11;132,99;-17,13;7,09;7,40;133,07;131,23;2,48;94,34;1,22;18,75;651173
IF_IP1_R1_8502005_DIS1_82, SUBCASE 1, Case 1 Time 1.;42;-1,97;51,53;-16,72;-5,39;-3,93;51,82;55,94;7,47;132,04;12,37;7,00;7,24;132,12;130,31;7,47;132,04;-16,72;7,00;7,24;132,12;130,31;2,30;90,19;1,53;18,62;651173
IF_LD_R4_8502001_DIS1_INSF_-55, SUBCASE 1, Case 1 Time 1.;53;-0,68;52,40;-16,81;-4,50;-3,11;52,40;52,57;5,60;124,87;11,33;5,97;6,57;124,95;123,13;5,60;124,87;-16,81;5,97;6,57;124,95;123,13;2,31;79,61;0,11;17,59;651173
IF_LD_R4_8502001_DIS1_INSF_23, SUBCASE 1, Case 1 Time 1.;52;-1,07;50,56;-16,26;-4,47;-3,44;50,85;52,11;5,45;123,65;11,59;5,86;6,36;123,73;121,94;5,45;123,65;-16,26;5,86;6,36;123,73;121,94;2,23;80,30;0,65;17,42;651173
IF_LD_R4_8502001_DIS1_INSF_82, SUBCASE 1, Case 1 Time 1.;54;-1,47;49,14;-15,85;-4,46;-3,68;49,42;51,84;5,82;122,83;11,79;5,78;6,21;122,91;121,15;5,82;122,83;-15,85;5,78;6,21;122,91;121,15;2,10;78,50;1,01;17,31;651173
IF_TO_R4_8502005_FS11_-55, SUBCASE 1, Case 1 Time 1.;29;-0,41;34,56;-13,48;-3,17;-2,46;34,56;35,47;4,53;100,27;9,64;4,29;5,08;100,35;98,80;4,53;100,27;-13,48;4,29;5,08;100,35;98,80;1,79;59,72;0,15;14,11;651173
IF_TO_R4_8502005_FS11_23, SUBCASE 1, Case 1 Time 1.;28;-0,95;35,18;-13,03;-3,19;-2,82;35,20;36,64;4,31;99,93;9,98;4,23;4,92;100,00;98,49;4,31;99,93;-13,03;4,23;4,92;100,00;98,49;1,67;59,49;0,70;14,07;651173
IF_TO_R4_8502005_FS11_82, SUBCASE 1, Case 1 Time 1.;30;-1,36;35,63;-12,72;-3,20;-3,08;35,66;37,53;4,18;99,77;10,24;4,19;4,81;99,84;98,34;4,18;99,77;-12,72;4,19;4,81;99,84;98,34;1,61;59,68;1,06;14,05;651173
IF_IP2_R4_8502005_FS11_82, SUBCASE 1, Case 1 Time 1.;27;-1,39;33,91;-10,98;-2,99;-2,78;34,10;35,68;4,09;87,88;9,08;3,92;4,40;87,94;86,64;4,09;87,88;-10,98;3,92;4,40;87,94;86,64;1,41;54,36;1,20;12,38;651173
IF_IP2_R4_8502005_FS11_23, SUBCASE 1, Case 1 Time 1.;25;-0,98;34,56;-11,24;-2,97;-2,51;34,58;35,50;3,70;87,66;8,78;3,96;4,50;87,72;86,41;3,70;87,66;-11,24;3,96;4,50;87,72;86,41;1,41;52,13;0,82;12,34;651173
IF_IP2_R4_8502005_FS11_-55, SUBCASE 1, Case 1 Time 1.;26;-0,44;33,92;-11,62;-2,95;-2,14;33,92;34,71;3,87;87,49;8,38;4,00;4,65;87,56;86,23;3,87;87,49;-11,62;4,00;4,65;87,56;86,23;1,58;53,97;0,29;12,32;651173
IF_TO_R4_8502005_DIS1_-55, SUBCASE 1, Case 1 Time 1.;47;-0,40;33,23;-10,64;-2,93;-1,89;33,42;34,15;3,54;79,64;7,30;3,96;4,43;79,69;78,52;3,54;79,64;-10,64;3,96;4,43;79,69;78,52;1,50;51,45;0,15;11,22;651173
IF_TO_R4_8502005_DIS1_23, SUBCASE 1, Case 1 Time 1.;46;-0,82;31,36;-10,11;-2,91;-2,22;31,53;33,74;3,68;78,62;7,58;3,85;4,22;78,67;77,54;3,68;78,62;-10,11;3,85;4,22;78,67;77,54;1,37;50,71;0,70;11,08;651173
IF_TO_R4_8502005_DIS1_82, SUBCASE 1, Case 1 Time 1.;48;-1,22;30,00;-9,73;-2,89;-2,47;30,17;32,48;4,05;77,95;7,80;3,78;4,07;78,00;76,88;4,05;77,95;-9,73;3,78;4,07;78,00;76,88;1,30;50,54;1,05;10,98;651173
IF_IP2_R4_8502005_DIS1_-55, SUBCASE 1, Case 1 Time 1.;44;-0,38;29,71;-9,53;-2,67;-1,71;29,88;31,14;3,16;72,05;6,70;3,63;4,08;72,10;71,05;3,16;72,05;-9,53;3,63;4,08;72,10;71,05;1,35;46,91;0,26;10,15;651173
IF_IP2_R4_8502005_DIS1_23, SUBCASE 1, Case 1 Time 1.;43;-0,85;27,64;-8,94;-2,63;-2,03;27,79;29,95;3,43;70,55;6,94;3,50;3,85;70,60;69,58;3,43;70,55;-8,94;3,50;3,85;70,60;69,58;1,26;47,58;0,81;9,94;651173
IF_IP2_R4_8502005_DIS1_82, SUBCASE 1, Case 1 Time 1.;45;-1,25;26,12;-8,50;-2,60;-2,27;26,27;28,24;3,78;69,51;7,12;3,41;3,68;69,55;68,56;3,78;69,51;-8,50;3,41;3,68;69,55;68,56;1,13;45,40;1,16;9,79;651173
IF_CR_R1_8501009_FS11_-55, SUBCASE 1, Case 1 Time 1.;20;-1,29;-19,62;-3,05;-1,37;-1,11;0,19;0,36;2,79;43,95;6,49;1,88;2,46;44,04;44,20;2,79;43,95;6,49;1,88;2,46;44,04;44,20;-0,03;9,37;0,67;6,31;651176
IF_CR_R1_8501009_FS11_23, SUBCASE 1, Case 1 Time 1.;19;-1,46;-17,73;-2,69;-1,39;-1,79;0,41;1,42;3,31;43,77;6,88;1,83;2,35;43,86;44,16;3,31;43,77;6,88;1,83;2,35;43,86;44,16;0,06;16,16;1,21;6,31;651176
IF_CR_R1_8501009_FS11_82, SUBCASE 1, Case 1 Time 1.;21;-1,82;-16,24;-2,41;-1,40;-2,34;0,65;2,41;3,70;43,63;7,18;1,94;2,27;43,72;44,13;3,70;43,63;7,18;1,94;-2,34;43,72;44,13;-0,20;9,56;1,58;6,30;651176
IF_IP1_R1_8502005_FS11_-55, SUBCASE 1, Case 1 Time 1.;23;-1,32;-26,12;-3,48;-1,08;-1,03;0,57;2,99;1,23;14,92;3,65;0,51;1,03;26,13;26,08;-1,32;-26,12;3,65;-1,08;-1,03;26,13;26,08;-0,26;-4,51;-0,08;3,73;651167
IF_IP1_R1_8502005_FS11_23, SUBCASE 1, Case 1 Time 1.;22;-1,51;-25,55;-3,11;-0,33;-0,99;0,51;1,44;1,28;14,79;4,15;0,46;0,92;25,58;25,08;-1,51;-25,55;4,15;0,46;-0,99;25,58;25,08;-0,35;-3,87;0,49;3,58;651170
IF_IP1_R1_8502005_FS11_82, SUBCASE 1, Case 1 Time 1.;24;-1,64;-25,23;-2,85;-0,38;-1,61;0,48;1,16;1,68;14,69;4,52;1,11;0,85;25,26;24,69;1,68;-25,23;4,52;1,11;-1,61;25,26;24,69;-0,43;-4,22;0,83;3,53;651173
IF_IP2_JAM2M_IN_82, SUBCASE 1, Case 1 Time 1.;96;-0,16;4,77;-2,04;-0,48;-0,83;4,77;4,97;0,68;15,35;1,46;0,88;0,59;15,36;15,14;0,68;15,35;-2,04;0,88;-0,83;15,36;15,14;0,26;8,81;-0,02;2,16;651173
IF_IP2_JAM2M_IN_23, SUBCASE 1, Case 1 Time 1.;94;-0,08;4,43;-2,39;-0,48;-0,30;4,44;4,27;0,83;15,25;1,16;0,59;0,79;15,26;15,02;0,83;15,25;-2,39;0,59;0,79;15,26;15,02;0,31;8,33;-0,36;2,15;651173
IF_IP2_JAM2M_IN_-55, SUBCASE 1, Case 1 Time 1.;95;-0,35;3,87;-2,95;-1,02;-0,10;3,88;3,88;1,04;15,22;0,77;0,65;1,50;15,23;15,00;1,04;15,22;-2,95;-1,02;1,50;15,23;15,00;0,44;8,71;-0,96;2,14;651173
IF_LD_JAM2M_IN_-55, SUBCASE 1, Case 1 Time 1.;107;-1,25;-11,80;-2,46;-1,51;-0,58;1,39;1,87;1,28;-1,38;0,57;0,28;1,65;11,82;11,99;1,28;-11,80;-2,46;-1,51;1,65;11,82;11,99;0,03;-5,75;-1,27;1,71;651178
IF_LD_JAM2M_IN_23, SUBCASE 1, Case 1 Time 1.;106;-0,70;-10,03;-1,66;-0,42;-0,61;2,57;2,70;0,72;-2,55;0,87;0,24;0,45;10,03;9,97;0,72;-10,03;-1,66;-0,42;-0,61;10,03;9,97;-0,07;-5,25;-0,66;1,42;651170
IF_TO_JAM2M_IN_82, SUBCASE 1, Case 1 Time 1.;102;-0,12;2,82;-1,21;-0,29;-0,80;2,82;2,93;0,40;9,06;0,84;0,77;0,40;9,06;8,94;0,40;9,06;-1,21;0,77;-0,80;9,06;8,94;0,15;5,17;-0,05;1,28;651173
IF_LD_JAM2M_IN_82, SUBCASE 1, Case 1 Time 1.;108;-0,40;-8,97;-1,09;-0,42;-0,70;2,34;2,79;0,29;-2,32;1,08;0,43;0,11;8,98;8,82;-0,40;-8,97;-1,09;0,43;-0,70;8,98;8,82;-0,13;-4,96;-0,32;1,26;651173
IF_TO_JAM2M_IN_23, SUBCASE 1, Case 1 Time 1.;100;-0,10;2,46;-1,56;-0,28;-0,13;2,49;2,34;0,55;8,83;0,52;0,33;0,57;8,84;8,71;0,55;8,83;-1,56;0,33;0,57;8,84;8,71;0,21;4,86;-0,39;1,24;651173
IF_TO_JAM2M_IN_-55, SUBCASE 1, Case 1 Time 1.;101;-0,57;1,68;-2,11;-1,13;-0,03;1,78;2,43;1,02;8,66;0,18;0,39;1,53;8,67;8,57;1,02;8,66;-2,11;-1,13;1,53;8,67;8,57;0,33;4,96;-0,99;1,22;651173
IF_TO_JAM2M_OUT_-55, SUBCASE 1, Case 1 Time 1.;104;-0,53;-5,58;-0,49;-1,04;-0,36;1,93;2,19;0,20;-1,93;0,65;0,28;1,18;5,58;5,54;-0,53;-5,58;0,65;-1,04;1,18;5,58;5,54;-0,08;-4,11;-0,07;0,79;651173
IF_IP1_JAM2M_OUT_82, SUBCASE 1, Case 1 Time 1.;93;-1,04;-5,49;0,31;-0,32;-1,25;0,52;1,10;0,54;-0,50;1,59;0,95;0,11;5,49;5,53;-1,04;-5,49;1,59;0,95;-1,25;5,49;5,53;-0,27;-3,53;1,03;0,79;651051
IF_TO_JAM2M_OUT_82, SUBCASE 1, Case 1 Time 1.;105;-0,87;-5,38;0,14;-0,33;-1,16;1,44;1,67;0,43;-1,44;1,49;0,87;0,07;5,38;5,40;-0,87;-5,38;1,49;0,87;-1,16;5,38;5,40;-0,25;-3,75;0,85;0,77;651059
IF_TO_JAM2M_OUT_23, SUBCASE 1, Case 1 Time 1.;103;-0,46;-5,43;-0,10;-0,30;-0,48;2,65;2,67;0,10;-2,65;1,10;0,26;0,04;5,44;5,38;-0,46;-5,43;1,10;-0,30;-0,48;5,44;5,38;-0,17;-3,59;0,45;0,77;651176
IF_IP1_JAM2M_OUT_23, SUBCASE 1, Case 1 Time 1.;91;-0,63;-5,08;0,10;-0,27;-0,56;1,44;1,51;0,16;-1,44;1,16;0,25;0,04;5,08;5,04;-0,63;-5,08;1,16;-0,27;-0,56;5,08;5,04;0,00;3,50;0,69;0,72;651176
IF_IP1_JAM2M_OUT_-55, SUBCASE 1, Case 1 Time 1.;92;-0,35;-4,58;-0,28;-0,93;-0,31;1,82;2,09;0,12;-1,81;0,59;0,25;1,07;4,58;4,56;-0,35;-4,58;0,59;-0,93;1,07;4,58;4,56;-0,08;-3,00;0,13;0,65;651176
IF_IP2_JAM2M_OUT_82, SUBCASE 1, Case 1 Time 1.;99;-0,88;-3,01;0,31;-0,21;-1,21;0,06;0,60;0,66;0,84;1,31;0,97;0,16;3,01;3,55;-0,88;-3,01;1,31;0,97;-1,21;3,01;3,55;-0,18;-0,98;0,84;0,51;651051
IF_IP2_JAM2M_OUT_-55, SUBCASE 1, Case 1 Time 1.;98;-0,31;-2,37;-0,26;-0,95;-0,28;0,59;0,97;0,17;-0,59;0,21;0,11;1,13;2,37;2,93;-0,31;-2,37;-0,26;-0,95;1,13;2,37;2,93;-0,01;-1,48;-0,08;0,42;651051
IF_IP2_JAM2M_OUT_23, SUBCASE 1, Case 1 Time 1.;97;-0,46;-2,11;0,09;-0,08;-0,34;0,42;0,51;0,24;-0,39;0,68;0,18;0,02;2,13;2,35;-0,46;-2,11;0,68;0,18;-0,34;2,13;2,35;-0,09;-0,84;0,44;0,34;651051
Ref CID;Coord Material;;;;;;;;;;;;;;;;;;;;;;;;;;
