LC_Name;LC_ID;qxMin;qyMin;qxyMin;qxzMin;qyzMin;qshearMin;qvonmisesMin;qxMax;qyMax;qxyMax;qxzMax;qyzMax;qshearMax;qvonmisesMax;qxAbsMax;qyAbsMax;qxyAbsMax;qxzAbsMax;qyzAbsMax;qshearAbsMax;qvonmisesAbsMax;qxAverage;qyAverage;qxyAverage;sigmaVonMisesMax;CriticalElemID
IF_CR_R1_8501009_-55, SUBCASE 1, Case 1 Time 1.;2;-3,13;-4,39;-47,37;-8,86;-5,83;54,55;57,92;315,77;217,38;34,98;8,84;15,51;316,01;310,37;315,77;217,38;-47,37;-8,86;15,51;316,01;310,37;88,71;78,75;0,30;51,73;651950
IF_CR_R1_8501009_JAM2_-55, SUBCASE 1, Case 1 Time 1.;74;-3,25;-4,54;-44,46;-8,85;-5,61;47,73;51,00;314,86;215,98;33,89;8,73;15,53;315,08;309,67;314,86;215,98;-44,46;-8,85;15,53;315,08;309,67;85,12;75,62;0,13;51,61;651950
IF_CR_R1_8501009_23, SUBCASE 1, Case 1 Time 1.;1;-3,61;-4,59;-46,87;-9,17;-5,85;53,50;56,94;314,65;216,90;34,48;8,77;16,14;314,89;309,28;314,65;216,90;-46,87;-9,17;16,14;314,89;309,28;85,37;76,22;0,37;51,55;651950
IF_CR_R1_8501009_JAM2_23, SUBCASE 1, Case 1 Time 1.;73;-3,72;-4,73;-44,35;-9,17;-5,66;47,59;50,94;313,86;215,69;33,53;8,68;16,16;314,08;308,66;313,86;215,69;-44,35;-9,17;16,16;314,08;308,66;83,47;74,29;0,18;51,44;651950
IF_CR_R1_8501009_82, SUBCASE 1, Case 1 Time 1.;3;-3,99;-4,75;-46,49;-9,41;-5,86;52,70;56,20;313,81;216,56;34,10;8,72;16,61;314,04;308,45;313,81;216,56;-46,49;-9,41;16,61;314,04;308,45;88,29;78,62;0,40;51,41;651950
IF_CR_R1_8501009_JAM2_82, SUBCASE 1, Case 1 Time 1.;75;-4,08;-4,87;-44,25;-9,41;-5,70;47,47;50,88;313,10;215,48;33,26;8,64;16,63;313,33;307,91;313,10;215,48;-44,25;-9,41;16,63;313,33;307,91;85,45;76,14;0,27;51,32;651950
IF_LD_R2_8502001_FS11_-55, SUBCASE 1, Case 1 Time 1.;32;-266,54;-182,22;-30,93;-2,58;-2,27;2,43;8,16;6,40;0,28;29,54;1,58;1,58;267,30;260,62;-266,54;-182,22;-30,93;-2,58;-2,27;267,30;260,62;-37,70;-33,71;-2,41;43,44;651950
IF_LD_R2_8502001_FS11_23, SUBCASE 1, Case 1 Time 1.;31;-263,22;-180,51;-30,85;-2,54;-2,07;2,19;7,28;6,34;0,07;29,88;1,52;1,54;263,97;257,34;-263,22;-180,51;-30,85;-2,54;-2,07;263,97;257,34;-36,25;-32,25;-2,27;42,89;651950
IF_LD_R2_8502001_FS11_82, SUBCASE 1, Case 1 Time 1.;33;-260,71;-179,24;-30,79;-2,52;-1,93;2,15;6,83;6,29;-0,09;30,14;1,48;1,51;261,44;254,86;-260,71;-179,24;-30,79;-2,52;-1,93;261,44;254,86;-37,70;-33,43;-2,29;42,48;651950
IF_IP2_R4_8502005_DIS3_-55, SUBCASE 1, Case 1 Time 1.;62;-2,20;-3,32;-30,63;-6,04;-3,74;22,00;24,08;219,82;148,92;22,38;5,94;10,69;219,95;216,58;219,82;148,92;-30,63;-6,04;10,69;219,95;216,58;52,87;46,90;-0,35;36,10;651950
IF_IP2_R4_8502005_DIS3_23, SUBCASE 1, Case 1 Time 1.;61;-2,71;-3,54;-29,90;-6,37;-3,76;20,94;23,09;219,09;148,72;21,90;5,88;11,35;219,22;215,86;219,09;148,72;-29,90;-6,37;11,35;219,22;215,86;51,49;45,83;-0,28;35,98;651950
IF_IP2_R4_8502005_DIS3_82, SUBCASE 1, Case 1 Time 1.;63;-3,09;-3,70;-29,34;-6,62;-3,78;20,13;22,33;218,53;148,59;21,53;6,12;11,84;218,66;215,31;218,53;148,59;-29,34;-6,62;11,84;218,66;215,31;52,50;46,83;-0,25;35,89;651950
IF_CR_R1_8501009_DIS3_-55, SUBCASE 1, Case 1 Time 1.;56;-2,01;-2,87;-29,87;-5,69;-3,86;33,02;35,19;207,60;142,13;22,96;5,68;10,01;207,75;204,17;207,60;142,13;-29,87;-5,69;10,01;207,75;204,17;56,23;49,84;-0,03;34,03;651950
IF_CR_R1_8501009_DIS3_23, SUBCASE 1, Case 1 Time 1.;55;-2,52;-3,09;-29,32;-6,01;-3,88;31,84;34,07;206,56;141,72;22,44;5,61;10,65;206,70;203,14;206,56;141,72;-29,32;-6,01;10,65;206,70;203,14;54,20;48,19;0,02;33,86;651950
IF_CR_R1_8501009_DIS3_82, SUBCASE 1, Case 1 Time 1.;57;-2,90;-3,24;-28,90;-6,25;-3,89;30,93;33,21;205,75;141,41;22,04;5,76;11,14;205,89;202,35;205,75;141,41;-28,90;-6,25;11,14;205,89;202,35;55,70;49,63;0,08;33,73;651950
IF_CR_R1_8501009_DIS1_-55, SUBCASE 1, Case 1 Time 1.;38;-1,89;-2,87;-29,74;-5,57;-3,85;33,39;35,55;203,75;139,34;22,78;5,62;9,92;203,90;200,36;203,75;139,34;-29,74;5,62;9,92;203,90;200,36;55,52;49,17;-0,01;33,39;651950
IF_CR_R1_8501009_DIS1_23, SUBCASE 1, Case 1 Time 1.;37;-2,39;-3,08;-29,16;-5,89;-3,87;32,15;34,38;202,59;138,82;22,25;5,55;10,56;202,73;199,22;202,59;138,82;-29,16;-5,89;10,56;202,73;199,22;52,65;46,76;0,01;33,20;651950
IF_CR_R1_8501009_DIS1_82, SUBCASE 1, Case 1 Time 1.;39;-2,78;-3,24;-28,71;-6,13;-3,88;31,19;33,47;201,70;138,44;21,83;5,79;11,04;201,84;198,34;201,70;138,44;-28,71;-6,13;11,04;201,84;198,34;54,92;48,89;0,09;33,06;651950
IF_IP2_R4_8502005_JAM2M_OUT_82, SUBCASE 1, Case 1 Time 1.;117;-2,87;-3,05;-28,97;-6,09;-3,80;32,08;34,33;201,10;138,47;21,74;5,50;10,77;201,25;197,72;201,10;138,47;-28,97;-6,09;10,77;201,25;197,72;55,37;49,32;0,12;32,95;651950
IF_IP2_R4_8502005_JAM2M_OUT_-55, SUBCASE 1, Case 1 Time 1.;116;-1,97;-2,67;-29,23;-5,48;-3,72;32,86;34,95;201,07;137,76;22,32;5,48;9,55;201,21;197,72;201,07;137,76;-29,23;-5,48;9,55;201,21;197,72;54,90;48,65;-0,02;32,95;651950
IF_IP2_R4_8502005_JAM2M_OUT_23, SUBCASE 1, Case 1 Time 1.;115;-2,48;-2,89;-29,08;-5,83;-3,76;32,42;34,60;201,09;138,15;21,99;5,45;10,25;201,23;197,72;201,09;138,15;-29,08;-5,83;10,25;201,23;197,72;53,49;47,56;-0,01;32,95;651950
IF_TO_R4_8502005_DIS3_-55, SUBCASE 1, Case 1 Time 1.;65;-1,84;-2,94;-27,15;-5,27;-3,29;17,30;19,10;193,92;130,85;19,54;5,23;9,34;194,02;191,14;193,92;130,85;-27,15;-5,27;9,34;194,02;191,14;45,34;40,16;-0,41;31,86;651950
IF_TO_R4_8502005_DIS3_23, SUBCASE 1, Case 1 Time 1.;64;-2,36;-3,15;-26,40;-5,59;-3,31;16,23;18,08;193,09;130,60;19,05;5,17;10,00;193,20;190,33;193,09;130,60;-26,40;-5,59;10,00;193,20;190,33;45,35;40,32;-0,34;31,72;651950
IF_IP2_R4_8502005_-55, SUBCASE 1, Case 1 Time 1.;8;-2,06;-2,89;-26,65;-5,26;-3,18;16,89;18,67;192,70;129,97;19,29;5,13;9,20;192,80;189,93;192,70;129,97;-26,65;-5,26;9,20;192,80;189,93;44,91;39,82;-0,43;31,66;651950
IF_TO_R4_8502005_DIS3_82, SUBCASE 1, Case 1 Time 1.;66;-2,74;-3,32;-25,84;-5,84;-3,33;15,41;17,31;192,47;130,42;18,67;5,46;10,49;192,57;189,72;192,47;130,42;-25,84;-5,84;10,49;192,57;189,72;44,88;40,01;-0,30;31,62;651950
IF_IP2_R4_8502005_23, SUBCASE 1, Case 1 Time 1.;7;-2,58;-3,11;-25,97;-5,59;-3,21;15,85;17,69;192,34;130,02;18,84;5,08;9,88;192,44;189,57;192,34;130,02;-25,97;-5,59;9,88;192,44;189,57;44,42;39,54;-0,35;31,60;651950
IF_IP2_R4_8502005_82, SUBCASE 1, Case 1 Time 1.;9;-2,97;-3,28;-25,45;-5,85;-3,23;15,05;16,95;192,05;130,08;18,49;5,38;10,39;192,16;189,30;192,05;130,08;-25,45;-5,85;10,39;192,16;189,30;44,65;39,85;-0,32;31,55;651950
IF_IP2_R4_8502005_JAM2_-55, SUBCASE 1, Case 1 Time 1.;80;-2,18;-4,65;-25,83;-5,14;-2,78;2,80;4,76;187,90;124,87;17,07;4,96;9,04;187,97;185,60;187,90;124,87;-25,83;-5,14;9,04;187,97;185,60;37,03;32,85;-0,79;30,93;651950
IF_IP2_R4_8502005_JAM2_23, SUBCASE 1, Case 1 Time 1.;79;-2,70;-4,22;-25,18;-5,48;-2,84;2,37;4,82;187,73;125,14;16,71;5,05;9,73;187,81;185,41;187,73;125,14;-25,18;-5,48;9,73;187,81;185,41;37,08;33,04;-0,70;30,90;651950
IF_IP2_R4_8502005_JAM2_82, SUBCASE 1, Case 1 Time 1.;81;-3,09;-3,89;-24,68;-5,74;-3,04;2,04;4,93;187,59;125,35;16,43;5,39;10,24;187,67;185,26;187,59;125,35;-24,68;-5,74;10,24;187,67;185,26;37,32;33,37;-0,66;30,88;651950
IF_LD_R4_8502001_JAM2M_INSF_23, SUBCASE 1, Case 1 Time 1.;127;-186,06;-120,30;-19,29;-3,09;-1,27;2,90;9,84;107,50;63,02;12,42;4,09;5,54;186,75;181,62;-186,06;-120,30;-19,29;4,09;5,54;186,75;181,62;-6,46;-5,96;-1,99;30,27;651950
IF_LD_R2_8502001_JAM2M_INSF_-55, SUBCASE 1, Case 1 Time 1.;125;-185,37;-119,66;-19,51;-2,39;-1,11;4,66;9,66;95,79;54,92;12,28;3,69;4,21;186,07;181,05;-185,37;-119,66;-19,51;3,69;4,21;186,07;181,05;-7,88;-7,42;-2,02;30,17;651950
IF_TO_R4_8502005_JAM2M_OUT_82, SUBCASE 1, Case 1 Time 1.;123;-2,61;-2,83;-25,56;-5,57;-3,46;27,21;29,23;183,69;126,18;19,60;5,05;9,87;183,81;180,67;183,69;126,18;-25,56;-5,57;9,87;183,81;180,67;49,39;43,99;0,03;30,11;651950
IF_TO_R4_8502005_JAM2M_OUT_23, SUBCASE 1, Case 1 Time 1.;121;-2,22;-2,66;-25,68;-5,31;-3,42;27,57;29,53;183,67;125,85;19,85;4,96;9,34;183,79;180,66;183,67;125,85;-25,68;-5,31;9,34;183,79;180,66;47,55;42,25;-0,09;30,11;651950
IF_TO_R4_8502005_JAM2M_OUT_-55, SUBCASE 1, Case 1 Time 1.;122;-1,71;-2,45;-25,83;-4,96;-3,37;28,03;29,90;183,62;125,43;20,18;4,99;8,65;183,75;180,64;183,62;125,43;-25,83;4,99;8,65;183,75;180,64;48,93;43,32;-0,10;30,11;651950
IF_LD_R4_8502001_JAM2M_INSF_82, SUBCASE 1, Case 1 Time 1.;129;-185,01;-120,04;-19,42;-3,34;-1,39;3,35;9,26;107,08;62,98;12,88;4,04;6,06;185,69;180,56;-185,01;-120,04;-19,42;4,04;6,06;185,69;180,56;-6,59;-5,95;-1,95;30,09;651950
IF_LD_R2_8502001_JAM2M_INSF_23, SUBCASE 1, Case 1 Time 1.;124;-184,56;-119,69;-19,19;-2,73;-1,14;4,24;8,61;95,46;54,95;12,93;3,63;4,92;185,25;180,20;-184,56;-119,69;-19,19;3,63;4,92;185,25;180,20;-6,12;-5,68;-1,89;30,03;651950
IF_LD_R2_8502001_JAM2M_INSF_82, SUBCASE 1, Case 1 Time 1.;126;-182,59;-118,78;-19,20;-2,99;-1,27;4,17;8,03;95,37;55,23;13,26;3,59;5,45;183,26;178,23;-182,59;-118,78;-19,20;3,59;5,45;183,26;178,23;-8,38;-7,59;-1,92;29,71;651950
IF_LD_R4_8502001_JAM2M_INSF_-55, SUBCASE 1, Case 1 Time 1.;128;-180,74;-115,89;-19,14;-2,77;-1,17;1,04;10,09;108,86;63,91;11,19;4,13;4,90;181,44;176,49;-180,74;-115,89;-19,14;4,13;4,90;181,44;176,49;-4,91;-4,74;-2,00;29,41;651950
IF_TO_R4_8502005_-55, SUBCASE 1, Case 1 Time 1.;11;-1,76;-2,63;-24,44;-4,73;-2,89;13,42;15,00;175,72;118,08;17,39;4,67;8,29;175,81;173,28;175,72;118,08;-24,44;-4,73;8,29;175,81;173,28;39,72;35,16;-0,48;28,88;651950
IF_TO_R4_8502005_23, SUBCASE 1, Case 1 Time 1.;10;-2,28;-2,86;-23,76;-5,08;-2,91;12,38;13,95;175,41;118,19;16,94;4,63;8,98;175,50;172,97;175,41;118,19;-23,76;-5,08;8,98;175,50;172,97;39,76;35,35;-0,41;28,83;651950
IF_TO_R4_8502005_82, SUBCASE 1, Case 1 Time 1.;12;-2,68;-3,03;-23,25;-5,33;-2,94;11,60;13,17;175,17;118,28;16,60;4,93;9,49;175,26;172,74;175,17;118,28;-23,25;-5,33;9,49;175,26;172,74;39,46;35,19;-0,37;28,79;651950
IF_IP1_R1_8502005_JAM2M_OUT_82, SUBCASE 1, Case 1 Time 1.;111;-2,01;-1,59;-31,67;-4,37;-3,31;49,45;51,46;173,55;129,84;24,18;4,94;7,73;173,79;170,78;173,55;129,84;-31,67;4,94;7,73;173,79;170,78;53,14;47,36;0,92;28,46;653271
IF_LD_R4_8502001_DIS3_-55, SUBCASE 1, Case 1 Time 1.;71;-1,61;-2,97;-24,10;-4,62;-2,81;9,97;10,81;171,64;114,84;16,64;4,58;8,20;171,72;169,37;171,64;114,84;-24,10;-4,62;8,20;171,72;169,37;36,97;32,69;-0,56;28,23;651950
IF_TO_R4_8502005_JAM2_-55, SUBCASE 1, Case 1 Time 1.;83;-9,62;-4,94;-23,67;-4,62;-2,54;0,38;3,68;171,05;113,24;15,42;4,52;8,12;171,11;169,03;171,05;113,24;-23,67;-4,62;8,12;171,11;169,03;32,62;28,87;-0,81;28,17;651950
IF_TO_R4_8502005_JAM2_23, SUBCASE 1, Case 1 Time 1.;82;-5,54;-4,52;-23,02;-4,96;-2,58;0,21;3,98;170,93;113,54;15,05;4,59;8,82;171,00;168,89;170,93;113,54;-23,02;-4,96;8,82;171,00;168,89;32,94;29,31;-0,73;28,15;651950
IF_TO_R4_8502005_JAM2_82, SUBCASE 1, Case 1 Time 1.;84;-2,77;-4,20;-22,53;-5,23;-2,77;0,60;3,88;170,84;113,79;14,77;4,93;9,34;170,90;168,78;170,84;113,79;-22,53;-5,23;9,34;170,90;168,78;32,87;29,35;-0,68;28,13;651950
IF_LD_R4_8502001_DIS3_23, SUBCASE 1, Case 1 Time 1.;70;-2,13;-2,91;-23,38;-4,95;-2,84;9,03;9,89;170,99;114,72;16,17;4,60;8,86;171,07;168,72;170,99;114,72;-23,38;-4,95;8,86;171,07;168,72;36,09;32,06;-0,50;28,12;651950
IF_LD_R4_8502001_DIS3_82, SUBCASE 1, Case 1 Time 1.;72;-2,52;-3,07;-22,83;-5,20;-2,86;8,32;9,23;170,50;114,66;15,81;4,93;9,36;170,58;168,24;170,50;114,66;-22,83;-5,20;9,36;170,58;168,24;36,68;32,70;-0,45;28,04;651950
IF_IP1_R1_8502005_JAM2M_OUT_23, SUBCASE 1, Case 1 Time 1.;109;-1,62;-1,44;-31,92;-4,12;-3,29;50,01;51,95;170,83;128,40;24,09;4,92;7,24;171,06;168,12;170,83;128,40;-31,92;4,92;7,24;171,06;168,12;51,15;45,47;0,84;28,02;653271
IF_IP2_R4_8502005_JAM2M_IN_-55, SUBCASE 1, Case 1 Time 1.;113;-148,88;-90,56;-22,24;-4,56;-1,89;4,85;8,13;165,78;103,90;13,76;5,59;8,10;165,79;165,12;165,78;103,90;-22,24;5,59;8,10;165,79;165,12;10,67;9,46;-1,90;27,52;651950
IF_IP2_R4_8502005_JAM2M_IN_23, SUBCASE 1, Case 1 Time 1.;112;-144,86;-88,35;-21,55;-4,90;-2,16;4,46;8,28;165,42;104,03;13,00;5,51;8,78;165,43;164,72;165,42;104,03;-21,55;5,51;8,78;165,43;164,72;12,33;11,09;-1,72;27,45;651950
IF_IP1_R1_8502005_JAM2M_OUT_-55, SUBCASE 1, Case 1 Time 1.;110;-1,11;-1,24;-32,22;-3,79;-3,27;50,70;52,57;167,18;126,45;23,95;4,90;6,58;167,39;164,55;167,18;126,45;-32,22;4,90;6,58;167,39;164,55;53,12;47,07;0,79;27,42;653271
IF_IP2_R4_8502005_JAM2M_IN_82, SUBCASE 1, Case 1 Time 1.;114;-141,80;-86,68;-21,03;-5,15;-2,36;4,22;8,48;165,15;104,16;12,42;5,45;9,30;165,16;164,43;165,15;104,16;-21,03;5,45;9,30;165,16;164,43;10,77;9,81;-1,77;27,41;651950
IF_LD_R4_8502001_82, SUBCASE 1, Case 1 Time 1.;18;-2,58;-3,35;-21,95;-5,05;-2,69;3,09;4,95;165,76;110,87;14,73;4,71;9,01;165,83;163,69;165,76;110,87;-21,95;-5,05;9,01;165,83;163,69;33,43;29,82;-0,58;27,28;651950
IF_LD_R4_8502001_JAM2_82, SUBCASE 1, Case 1 Time 1.;90;-2,50;-2,90;-22,06;-5,05;-2,76;9,11;10,16;165,92;111,76;15,47;4,68;9,00;166,00;163,69;165,92;111,76;-22,06;-5,05;9,00;166,00;163,69;36,25;32,31;-0,42;27,28;651950
IF_LD_R4_8502001_23, SUBCASE 1, Case 1 Time 1.;16;-2,17;-3,59;-22,42;-4,78;-2,59;3,88;5,25;165,65;110,53;15,04;4,36;8,47;165,72;163,58;165,65;110,53;-22,42;-4,78;8,47;165,72;163,58;33,04;29,36;-0,63;27,26;651950
IF_LD_R4_8502001_-55, SUBCASE 1, Case 1 Time 1.;17;-1,64;-3,90;-23,03;-4,43;-2,55;4,90;5,84;165,48;110,09;15,44;4,34;7,76;165,55;163,43;165,48;110,09;-23,03;-4,43;7,76;165,55;163,43;33,43;29,55;-0,69;27,24;651950
IF_LD_R4_8502001_JAM2_23, SUBCASE 1, Case 1 Time 1.;88;-2,10;-2,73;-22,47;-4,77;-2,71;9,47;10,42;165,44;111,12;15,70;4,35;8,45;165,52;163,22;165,44;111,12;-22,47;-4,77;8,45;165,52;163,22;35,78;31,78;-0,47;27,20;651950
IF_LD_R4_8502001_JAM2_-55, SUBCASE 1, Case 1 Time 1.;89;-1,57;-2,75;-23,01;-4,40;-2,66;9,95;10,78;164,81;110,30;15,99;4,37;7,71;164,88;162,62;164,81;110,30;-23,01;-4,40;7,71;164,88;162,62;35,69;31,55;-0,55;27,10;651950
IF_TO_R4_8502005_JAM2M_IN_INSF_-55, SUBCASE 1, Case 1 Time 1.;119;-151,14;-93,46;-19,36;-3,85;-1,57;7,70;12,17;143,14;88,50;12,09;4,91;6,84;151,83;147,49;-151,14;-93,46;-19,36;4,91;6,84;151,83;147,49;6,09;5,25;-1,85;24,58;651950
IF_TO_R4_8502005_JAM2M_IN_INSF_23, SUBCASE 1, Case 1 Time 1.;118;-149,40;-92,84;-18,63;-4,18;-1,81;7,16;11,88;142,56;88,40;11,29;4,85;7,53;150,06;145,72;-149,40;-92,84;-18,63;4,85;7,53;150,06;145,72;7,64;6,79;-1,72;24,29;651950
IF_TO_R4_8502005_JAM2M_IN_INSF_82, SUBCASE 1, Case 1 Time 1.;120;-148,04;-92,36;-18,08;-4,43;-2,01;6,76;11,05;142,11;88,34;10,68;4,79;8,04;148,68;144,35;-148,04;-92,36;-18,08;4,79;8,04;148,68;144,35;5,54;5,03;-1,75;24,06;651950
IF_LD_R2_8502001_82, SUBCASE 1, Case 1 Time 1.;15;-35,44;-14,01;-19,11;-4,47;-2,32;5,49;6,37;145,51;95,50;11,82;4,28;8,00;145,55;144,06;145,51;95,50;-19,11;-4,47;8,00;145,55;144,06;23,14;20,65;-0,88;24,01;651950
IF_LD_R2_8502001_23, SUBCASE 1, Case 1 Time 1.;13;-37,28;-14,86;-19,58;-4,20;-2,12;5,30;6,00;145,36;95,13;12,37;3,93;7,46;145,41;143,92;145,36;95,13;-19,58;-4,20;7,46;145,41;143,92;23,79;21,12;-0,90;23,99;651950
IF_LD_R2_8502001_-55, SUBCASE 1, Case 1 Time 1.;14;-39,67;-15,98;-20,19;-3,84;-1,99;5,06;5,55;145,16;94,67;13,09;3,98;6,74;145,20;143,73;145,16;94,67;-20,19;3,98;6,74;145,20;143,73;23,23;20,46;-0,99;23,96;651950
IF_LD_R2_8502001_JAM2_82, SUBCASE 1, Case 1 Time 1.;87;-2,26;-2,60;-18,98;-4,38;-2,39;4,97;5,93;143,17;95,96;13,04;4,10;7,82;143,24;141,33;143,17;95,96;-18,98;-4,38;7,82;143,24;141,33;29,75;26,52;-0,47;23,55;651950
IF_LD_R2_8502001_JAM2_23, SUBCASE 1, Case 1 Time 1.;85;-1,85;-2,90;-19,42;-4,11;-2,31;5,43;6,17;142,85;95,43;13,29;3,75;7,28;142,92;141,03;142,85;95,43;-19,42;-4,11;7,28;142,92;141,03;29,71;26,38;-0,53;23,50;651950
IF_LD_R2_8502001_JAM2_-55, SUBCASE 1, Case 1 Time 1.;86;-1,32;-3,30;-19,99;-3,75;-2,26;6,01;6,55;142,42;94,75;13,62;3,74;6,55;142,48;140,62;142,42;94,75;-19,99;-3,75;6,55;142,48;140,62;29,36;25,90;-0,60;23,44;651950
IF_IP1_R1_8502005_JAM2_-55, SUBCASE 1, Case 1 Time 1.;77;-1,29;-2,03;-19,88;-3,72;-2,51;15,85;17,20;139,74;94,39;14,83;3,75;6,60;139,82;137,65;139,74;94,39;-19,88;3,75;6,60;139,82;137,65;34,15;30,20;-0,29;22,94;651950
IF_IP1_R1_8502005_-55, SUBCASE 1, Case 1 Time 1.;5;-1,25;-1,90;-19,83;-3,71;-2,61;20,51;21,92;139,21;94,78;15,41;3,76;6,54;139,30;136,98;139,21;94,78;-19,83;3,76;6,54;139,30;136,98;36,58;32,36;-0,15;22,83;651950
IF_IP1_R1_8502005_JAM2_23, SUBCASE 1, Case 1 Time 1.;76;-1,80;-2,23;-19,10;-4,04;-2,54;15,08;16,50;138,65;94,03;14,35;3,79;7,24;138,73;136,55;138,65;94,03;-19,10;-4,04;7,24;138,73;136,55;35,93;31,94;-0,20;22,76;651950
IF_IP1_R1_8502005_23, SUBCASE 1, Case 1 Time 1.;4;-1,77;-2,11;-19,05;-4,03;-2,62;19,21;20,69;138,17;94,37;14,86;3,73;7,19;138,26;135,95;138,17;94,37;-19,05;-4,03;7,19;138,26;135,95;38,12;33,89;-0,07;22,66;651950
IF_IP1_R1_8502005_JAM2_82, SUBCASE 1, Case 1 Time 1.;78;-2,19;-2,38;-18,50;-4,28;-2,56;14,48;15,95;137,80;93,76;13,98;4,11;7,72;137,88;135,71;137,80;93,76;-18,50;-4,28;7,72;137,88;135,71;33,85;30,20;-0,17;22,62;651950
IF_IP1_R1_8502005_82, SUBCASE 1, Case 1 Time 1.;6;-2,16;-2,28;-18,46;-4,27;-2,63;18,22;19,74;137,35;94,07;14,44;4,06;7,67;137,44;135,15;137,35;94,07;-18,46;-4,27;7,67;137,44;135,15;35,84;31,97;-0,04;22,53;651950
IF_CR_R1_8501009_FS11_-55, SUBCASE 1, Case 1 Time 1.;20;-0,48;-0,22;-19,90;-1,30;-1,54;32,82;31,84;123,78;89,92;16,42;2,31;2,26;124,01;121,41;123,78;89,92;-19,90;2,31;2,26;124,01;121,41;30,50;26,85;0,79;20,23;651950
IF_CR_R1_8501009_FS11_23, SUBCASE 1, Case 1 Time 1.;19;-0,73;-0,45;-19,09;-1,63;-1,55;32,82;32,05;123,46;89,09;16,06;2,29;2,92;123,70;121,12;123,46;89,09;-19,09;2,29;2,92;123,70;121,12;30,00;26,57;0,78;20,19;651950
IF_CR_R1_8501009_FS11_82, SUBCASE 1, Case 1 Time 1.;21;-1,05;-0,62;-18,46;-1,88;-1,55;32,12;32,28;123,20;88,44;15,78;2,28;3,42;123,45;120,89;123,20;88,44;-18,46;2,28;3,42;123,45;120,89;29,40;26,15;0,87;20,15;651950
IF_LD_R4_8502001_FS11_-55, SUBCASE 1, Case 1 Time 1.;35;-116,25;-77,46;-12,77;-0,61;-1,05;1,94;5,90;25,78;12,41;10,62;1,27;0,47;116,63;113,60;-116,25;-77,46;-12,77;1,27;-1,05;116,63;113,60;-11,76;-10,64;-1,20;18,93;651950
IF_LD_R4_8502001_FS11_23, SUBCASE 1, Case 1 Time 1.;34;-112,92;-75,73;-12,68;-0,85;-0,86;1,38;4,68;25,72;12,89;10,95;1,21;1,18;113,29;110,30;-112,92;-75,73;-12,68;1,21;1,18;113,29;110,30;-12,68;-11,30;-1,17;18,38;651950
IF_LD_R4_8502001_FS11_82, SUBCASE 1, Case 1 Time 1.;36;-110,40;-74,44;-12,62;-1,12;-0,81;1,06;3,94;25,66;13,27;11,21;1,16;1,71;110,75;107,80;-110,40;-74,44;-12,62;1,16;1,71;110,75;107,80;-11,66;-10,27;-1,07;17,97;651950
IF_LD_R2_8502001_DIS3_-55, SUBCASE 1, Case 1 Time 1.;68;-21,04;-5,58;-15,19;-2,70;-1,63;0,88;1,87;106,29;69,43;10,08;2,77;4,74;106,32;105,17;106,29;69,43;-15,19;2,77;4,74;106,32;105,17;18,54;16,24;-0,70;17,53;651950
IF_LD_R2_8502001_DIS3_23, SUBCASE 1, Case 1 Time 1.;67;-19,11;-4,84;-14,44;-3,03;-1,65;0,78;2,47;105,56;69,26;9,28;2,89;5,41;105,59;104,43;105,56;69,26;-14,44;-3,03;5,41;105,59;104,43;19,25;17,03;-0,63;17,40;651950
IF_LD_R2_8502001_DIS3_82, SUBCASE 1, Case 1 Time 1.;69;-17,64;-4,30;-13,87;-3,28;-1,81;0,62;2,75;104,98;69,13;8,76;3,22;5,91;105,01;103,85;104,98;69,13;-13,87;-3,28;5,91;105,01;103,85;18,02;16,05;-0,60;17,31;651950
IF_IP1_R1_8502005_DIS3_-55, SUBCASE 1, Case 1 Time 1.;59;-0,67;-1,19;-13,20;-2,30;-1,68;11,95;12,83;90,90;61,40;10,03;2,44;4,03;90,95;89,52;90,90;61,40;-13,20;2,44;4,03;90,95;89,52;22,80;20,10;-0,21;14,92;651950
IF_LD_R2_8502001_DIS1_INSF_-55, SUBCASE 1, Case 1 Time 1.;50;-23,17;-8,24;-12,90;-2,21;-1,36;1,14;1,92;89,53;58,12;8,63;2,33;3,86;89,55;88,64;89,53;58,12;-12,90;2,33;3,86;89,55;88,64;14,88;12,96;-0,66;14,77;651950
IF_IP1_R1_8502005_DIS3_23, SUBCASE 1, Case 1 Time 1.;58;-1,20;-1,41;-12,41;-2,62;-1,70;10,56;11,49;89,85;60,99;9,47;2,46;4,68;89,91;88,48;89,85;60,99;-12,41;-2,62;4,68;89,91;88,48;23,60;20,98;-0,14;14,75;651950
IF_IP1_R1_8502005_DIS1_-55, SUBCASE 1, Case 1 Time 1.;41;-0,62;-1,18;-13,03;-2,25;-1,67;11,89;12,76;89,16;60,15;9,91;2,40;3,98;89,21;87,80;89,16;60,15;-13,03;2,40;3,98;89,21;87,80;22,39;19,72;-0,20;14,63;651950
IF_IP1_R1_8502005_DIS3_82, SUBCASE 1, Case 1 Time 1.;60;-1,60;-1,57;-11,81;-2,86;-1,73;9,49;10,47;89,04;60,68;9,04;2,79;5,17;89,09;87,68;89,04;60,68;-11,81;-2,86;5,17;89,09;87,68;22,00;19,67;-0,11;14,61;651950
IF_IP1_R1_8502005_DIS1_23, SUBCASE 1, Case 1 Time 1.;40;-1,15;-1,40;-12,23;-2,57;-1,68;10,48;11,40;88,01;59,66;9,34;2,46;4,63;88,06;86,66;88,01;59,66;-12,23;-2,57;4,63;88,06;86,66;23,15;20,56;-0,14;14,44;651950
IF_LD_R2_8502001_DIS1_INSF_23, SUBCASE 1, Case 1 Time 1.;49;-21,63;-7,88;-11,96;-2,50;-1,36;1,86;2,71;87,43;57,02;7,70;2,40;4,45;87,46;86,55;87,43;57,02;-11,96;-2,50;4,45;87,46;86,55;14,01;12,35;-0,58;14,43;651950
IF_IP1_R1_8502005_DIS1_82, SUBCASE 1, Case 1 Time 1.;42;-1,54;-1,56;-11,62;-2,80;-1,70;9,41;10,38;87,11;59,29;8,90;2,79;5,11;87,17;85,78;87,11;59,29;-11,62;-2,80;5,11;87,17;85,78;21,54;19,25;-0,10;14,30;651950
IF_LD_R2_8502001_DIS1_INSF_82, SUBCASE 1, Case 1 Time 1.;51;-20,42;-7,56;-11,30;-2,73;-1,52;2,41;3,29;86,26;56,48;7,03;2,72;4,93;86,29;85,38;86,26;56,48;-11,30;-2,73;4,93;86,29;85,38;13,95;12,41;-0,55;14,23;651950
IF_IP1_R1_8502005_FS11_82, SUBCASE 1, Case 1 Time 1.;24;-0,70;-0,32;-10,64;-1,03;-0,81;16,63;16,28;77,44;54,74;9,59;1,17;1,93;77,62;75,92;77,44;54,74;-10,64;1,17;1,93;77,62;75,92;16,62;14,88;0,60;12,65;651950
IF_IP1_R1_8502005_FS11_23, SUBCASE 1, Case 1 Time 1.;22;-0,44;-0,15;-11,21;-0,77;-0,80;16,40;15,95;77,29;55,10;9,82;1,18;1,42;77,46;75,75;77,29;55,10;-11,21;1,18;1,42;77,46;75,75;17,49;15,53;0,57;12,62;651950
IF_IP1_R1_8502005_FS11_-55, SUBCASE 1, Case 1 Time 1.;23;-0,18;0,08;-11,95;-0,44;-0,79;16,12;15,67;77,07;55,55;10,11;1,19;0,75;77,23;75,51;77,07;55,55;-11,95;1,19;-0,79;77,23;75,51;17,56;15,43;0,51;12,58;651950
IF_LD_R4_8502001_DIS1_INSF_-55, SUBCASE 1, Case 1 Time 1.;53;-9,89;-2,53;-8,98;-1,39;-0,95;0,41;1,36;61,55;40,06;6,13;1,63;2,34;61,57;60,89;61,55;40,06;-8,98;1,63;2,34;61,57;60,89;11,24;9,74;-0,42;10,15;651950
IF_LD_R4_8502001_DIS1_INSF_23, SUBCASE 1, Case 1 Time 1.;52;-8,58;-2,28;-8,20;-1,71;-0,97;0,85;1,15;60,57;39,69;5,35;1,58;3,00;60,59;59,90;60,57;39,69;-8,20;-1,71;3,00;60,59;59,90;10,94;9,63;-0,37;9,98;651950
IF_LD_R4_8502001_DIS1_INSF_82, SUBCASE 1, Case 1 Time 1.;54;-7,59;-2,09;-7,60;-1,96;-1,12;0,62;1,64;59,83;39,44;4,92;1,91;3,50;59,85;59,17;59,83;39,44;-7,60;-1,96;3,50;59,85;59,17;10,51;9,37;-0,32;9,86;651950
IF_TO_R4_8502005_DIS1_-55, SUBCASE 1, Case 1 Time 1.;47;-4,71;-1,57;-6,02;-0,81;-0,60;0,56;1,55;41,11;26,65;4,17;1,08;1,28;41,12;40,64;41,11;26,65;-6,02;1,08;1,28;41,12;40,64;7,83;6,74;-0,28;6,77;651950
IF_TO_R4_8502005_DIS1_23, SUBCASE 1, Case 1 Time 1.;46;-3,77;-1,35;-5,22;-1,14;-0,62;0,36;0,87;40,05;26,22;3,51;1,02;1,93;40,07;39,59;40,05;26,22;-5,22;-1,14;1,93;40,07;39,59;7,30;6,44;-0,22;6,60;651950
IF_TO_R4_8502005_FS11_-55, SUBCASE 1, Case 1 Time 1.;29;-40,08;-24,57;-4,78;-0,64;-0,44;0,98;3,48;33,29;19,96;3,13;1,06;0,85;40,28;39,14;-40,08;-24,57;-4,78;1,06;0,85;40,28;39,14;1,00;0,69;-0,56;6,52;651950
IF_TO_R4_8502005_DIS1_82, SUBCASE 1, Case 1 Time 1.;48;-3,07;-1,18;-4,62;-1,38;-0,81;0,48;1,22;39,24;25,91;3,06;1,33;2,43;39,26;38,80;39,24;25,91;-4,62;-1,38;2,43;39,26;38,80;6,99;6,27;-0,19;6,47;651950
IF_TO_R4_8502005_FS11_23, SUBCASE 1, Case 1 Time 1.;28;-38,45;-24,02;-4,30;-0,98;-0,47;1,08;2,33;32,98;20,06;2,54;1,00;1,55;38,63;37,49;-38,45;-24,02;-4,30;1,00;1,55;38,63;37,49;0,83;0,71;-0,50;6,25;651950
IF_IP2_R4_8502005_DIS1_-55, SUBCASE 1, Case 1 Time 1.;44;-4,64;-1,45;-5,46;-0,74;-0,52;0,35;1,25;37,85;24,47;3,75;0,99;1,12;37,86;37,41;37,85;24,47;-5,46;0,99;1,12;37,86;37,41;7,15;6,16;-0,27;6,24;651950
IF_TO_R4_8502005_FS11_82, SUBCASE 1, Case 1 Time 1.;30;-37,21;-23,62;-3,92;-1,24;-0,65;0,78;1,77;32,73;20,15;2,18;1,15;2,07;37,38;36,23;-37,21;-23,62;-3,92;-1,24;2,07;37,38;36,23;0,56;0,59;-0,46;6,04;651950
IF_IP2_R4_8502005_DIS1_23, SUBCASE 1, Case 1 Time 1.;43;-3,77;-1,22;-4,62;-1,05;-0,57;0,23;0,74;36,51;23,86;3,11;0,91;1,76;36,52;36,08;36,51;23,86;-4,62;-1,05;1,76;36,52;36,08;7,15;6,33;-0,21;6,01;651950
IF_IP2_R4_8502005_FS11_-55, SUBCASE 1, Case 1 Time 1.;26;-24,56;-13,79;-4,92;-0,70;-0,39;0,62;1,62;35,40;22,01;3,31;1,04;0,96;35,41;35,17;35,40;22,01;-4,92;1,04;0,96;35,41;35,17;3,67;3,09;-0,43;5,86;651950
IF_IP2_R4_8502005_DIS1_82, SUBCASE 1, Case 1 Time 1.;45;-3,12;-1,17;-3,99;-1,29;-0,76;0,12;1,11;35,48;23,40;2,64;1,24;2,24;35,49;35,08;35,48;23,40;-3,99;-1,29;2,24;35,49;35,08;6,18;5,58;-0,17;5,85;651950
IF_IP2_R4_8502005_FS11_23, SUBCASE 1, Case 1 Time 1.;25;-23,71;-13,79;-4,21;-1,03;-0,51;0,58;0,92;34,95;21,98;2,52;0,98;1,65;34,95;34,71;34,95;21,98;-4,21;-1,03;1,65;34,95;34,71;3,78;3,35;-0,34;5,79;651950
IF_IP2_R4_8502005_FS11_82, SUBCASE 1, Case 1 Time 1.;27;-23,07;-13,80;-3,66;-1,29;-0,71;0,40;1,46;34,59;21,98;1,91;1,19;2,17;34,60;34,38;34,59;21,98;-3,66;-1,29;2,17;34,60;34,38;2,99;2,76;-0,34;5,73;651950
IF_LD_JAM2M_IN_-55, SUBCASE 1, Case 1 Time 1.;107;-2,47;-3,47;-2,40;-0,51;-0,85;0,38;2,34;8,73;7,28;1,76;0,65;0,39;8,73;8,60;8,73;7,28;-2,40;0,65;-0,85;8,73;8,60;1,71;1,01;0,02;1,43;653271
IF_LD_JAM2M_IN_23, SUBCASE 1, Case 1 Time 1.;106;-3,20;-3,22;-1,53;-0,21;-0,20;0,42;1,11;8,06;6,19;1,35;0,36;0,56;8,07;7,90;8,06;6,19;-1,53;0,36;0,56;8,07;7,90;0,91;0,49;0,06;1,32;653271
IF_LD_JAM2M_IN_82, SUBCASE 1, Case 1 Time 1.;108;-3,83;-3,18;-0,86;-0,29;-0,20;0,27;0,31;7,58;5,36;1,03;0,49;0,67;7,60;7,42;7,58;5,36;1,03;0,49;0,67;7,60;7,42;0,54;0,26;0,09;1,24;653271
IF_IP1_JAM2M_OUT_82, SUBCASE 1, Case 1 Time 1.;93;-6,81;-6,11;-2,00;-0,63;-0,61;0,65;2,39;0,31;0,19;2,65;0,32;0,37;6,81;6,81;-6,81;-6,11;2,65;-0,63;-0,61;6,81;6,81;-2,63;-1,87;0,02;1,13;653271
IF_IP1_JAM2M_OUT_-55, SUBCASE 1, Case 1 Time 1.;92;-6,81;-5,40;-1,15;-0,87;-0,94;0,94;1,59;0,41;0,64;1,37;0,50;0,38;6,81;6,79;-6,81;-5,40;1,37;-0,87;-0,94;6,81;6,79;-1,67;-1,30;-0,07;1,13;651950
IF_IP1_JAM2M_OUT_23, SUBCASE 1, Case 1 Time 1.;91;-6,28;-5,66;-1,41;-0,61;-0,72;0,73;2,00;0,10;0,35;2,09;0,19;0,37;6,28;6,36;-6,28;-5,66;2,09;-0,61;-0,72;6,28;6,36;-0,77;-0,34;-0,03;1,06;651950
IF_IP2_JAM2M_IN_-55, SUBCASE 1, Case 1 Time 1.;95;-5,86;-2,35;-1,88;-0,34;-0,42;0,57;0,99;4,54;1,99;1,84;0,39;0,26;5,93;6,06;-5,86;-2,35;-1,88;0,39;-0,42;5,93;6,06;0,87;0,37;-0,13;1,01;653271
IF_IP2_JAM2M_IN_23, SUBCASE 1, Case 1 Time 1.;94;-5,65;-2,83;-1,11;-0,11;-0,23;0,12;0,45;3,73;1,71;0,98;0,37;0,43;5,70;5,67;-5,65;-2,83;-1,11;0,37;0,43;5,70;5,67;0,20;-0,03;-0,08;0,95;653271
IF_TO_JAM2M_OUT_-55, SUBCASE 1, Case 1 Time 1.;104;-5,45;-4,25;-0,86;-0,78;-0,92;1,45;2,03;0,33;0,56;0,99;0,47;0,34;5,46;5,44;-5,45;-4,25;0,99;-0,78;-0,92;5,46;5,44;-1,46;-1,20;-0,06;0,91;651950
IF_IP2_JAM2M_IN_82, SUBCASE 1, Case 1 Time 1.;96;-5,48;-3,21;-0,80;-0,35;-0,26;0,16;0,54;3,09;1,51;0,51;0,67;0,76;5,51;5,41;-5,48;-3,21;-0,80;0,67;0,76;5,51;5,41;-0,09;-0,19;-0,05;0,90;653271
IF_TO_JAM2M_OUT_82, SUBCASE 1, Case 1 Time 1.;105;-5,29;-4,65;-1,67;-0,47;-0,40;0,62;2,01;0,23;0,17;2,10;0,28;0,28;5,29;5,30;-5,29;-4,65;2,10;-0,47;-0,40;5,29;5,30;-2,09;-1,47;0,04;0,88;653271
IF_TO_JAM2M_OUT_23, SUBCASE 1, Case 1 Time 1.;103;-4,50;-4,17;-1,10;-0,46;-0,52;0,94;1,70;0,01;0,27;1,61;0,15;0,29;4,50;4,59;-4,50;-4,17;1,61;-0,46;-0,52;4,50;4,59;-1,76;-1,31;0,00;0,76;651950
IF_IP2_JAM2M_OUT_82, SUBCASE 1, Case 1 Time 1.;99;-3,65;-2,93;-1,30;-0,40;-0,31;0,16;1,36;0,40;1,27;1,27;0,33;0,46;3,65;3,69;-3,65;-2,93;-1,30;-0,40;0,46;3,65;3,69;-0,78;-0,34;0,05;0,62;653271
IF_TO_JAM2M_IN_-55, SUBCASE 1, Case 1 Time 1.;101;-2,79;-0,64;-1,61;-0,38;-0,54;0,41;1,03;3,36;2,46;1,66;0,43;0,26;3,36;3,51;3,36;2,46;1,66;0,43;-0,54;3,36;3,51;0,93;0,41;-0,10;0,58;651950
IF_TO_JAM2M_IN_23, SUBCASE 1, Case 1 Time 1.;100;-2,72;-0,99;-0,89;-0,11;-0,20;0,10;0,51;1,80;0,88;0,84;0,34;0,42;2,76;2,90;-2,72;-0,99;-0,89;0,34;0,42;2,76;2,90;0,31;0,05;-0,05;0,48;653271
IF_TO_JAM2M_IN_82, SUBCASE 1, Case 1 Time 1.;102;-2,66;-1,44;-0,47;-0,33;-0,23;0,07;0,40;1,17;0,34;0,32;0,60;0,64;2,68;2,69;-2,66;-1,44;-0,47;0,60;0,64;2,68;2,69;-0,07;-0,18;-0,01;0,45;651950
IF_IP2_JAM2M_OUT_23, SUBCASE 1, Case 1 Time 1.;97;-2,39;-2,04;-0,72;-0,32;-0,43;0,05;0,84;0,27;0,84;0,80;0,11;0,19;2,39;2,38;-2,39;-2,04;0,80;-0,32;-0,43;2,39;2,38;-0,53;-0,25;0,00;0,40;653271
IF_IP2_JAM2M_OUT_-55, SUBCASE 1, Case 1 Time 1.;98;-2,01;-1,52;-0,31;-0,68;-0,75;0,10;0,27;0,46;0,54;0,20;0,40;0,27;2,01;2,07;-2,01;-1,52;-0,31;-0,68;-0,75;2,01;2,07;-0,23;-0,14;-0,05;0,35;653271
Ref CID;Coord Material;;;;;;;;;;;;;;;;;;;;;;;;;;
