LC_Name;LC_ID;qxMin;qyMin;qxyMin;qxzMin;qyzMin;qshearMin;qvonmisesMin;qxMax;qyMax;qxyMax;qxzMax;qyzMax;qshearMax;qvonmisesMax;qxAbsMax;qyAbsMax;qxyAbsMax;qxzAbsMax;qyzAbsMax;qshearAbsMax;qvonmisesAbsMax;qxAverage;qyAverage;qxyAverage;sigmaVonMisesMax;CriticalElemID
IF_CR_R1_8501009_82, SUBCASE 1, Case 1 Time 1.;3;-121,42;-135,50;-17,45;-4,43;-3,54;1,31;32,26;80,91;62,24;23,20;3,85;7,31;135,51;137,34;-121,42;-135,50;23,20;-4,43;7,31;135,51;137,34;-2,32;-9,59;14,01;21,81;650799
IF_CR_R1_8501009_JAM2_82, SUBCASE 1, Case 1 Time 1.;75;-121,06;-134,99;-17,84;-4,55;-3,72;1,41;32,32;80,47;61,95;23,29;3,74;7,19;135,00;136,83;-121,06;-134,99;23,29;-4,55;7,19;135,00;136,83;-2,37;-9,61;14,19;21,73;650799
IF_CR_R1_8501009_23, SUBCASE 1, Case 1 Time 1.;1;-119,84;-135,34;-17,53;-4,61;-3,73;1,24;31,41;79,99;62,03;22,74;3,65;7,35;135,36;136,77;-119,84;-135,34;22,74;-4,61;7,35;135,36;136,77;-2,12;-8,51;13,86;21,72;650799
IF_CR_R1_8501009_JAM2_23, SUBCASE 1, Case 1 Time 1.;73;-119,43;-134,76;-17,97;-4,76;-3,93;1,20;31,49;79,51;61,71;22,96;3,52;7,22;134,77;136,18;-119,43;-134,76;22,96;-4,76;7,22;134,77;136,18;-2,18;-8,59;14,13;21,63;650799
IF_CR_R1_8501009_-55, SUBCASE 1, Case 1 Time 1.;2;-117,92;-135,21;-17,58;-4,86;-3,97;0,48;30,33;78,77;61,75;23,13;3,37;7,40;135,23;136,15;-117,92;-135,21;23,13;-4,86;7,40;135,23;136,15;-1,91;-7,32;13,88;21,63;650799
IF_CR_R1_8501009_JAM2_-55, SUBCASE 1, Case 1 Time 1.;74;-117,43;-134,53;-18,09;-5,03;-4,21;0,57;30,41;78,22;61,39;23,83;3,22;7,26;134,54;135,47;-117,43;-134,53;23,83;-5,03;7,26;134,54;135,47;-1,97;-7,34;14,11;21,52;650799
IF_IP2_R4_8502005_DIS3_82, SUBCASE 1, Case 1 Time 1.;63;-85,72;-94,85;-13,57;-3,46;-2,99;1,03;23,05;56,63;43,54;16,85;2,46;4,88;94,85;96,25;-85,72;-94,85;16,85;-3,46;4,88;94,85;96,25;-1,86;-7,20;10,41;15,29;650799
IF_IP2_R4_8502005_DIS3_23, SUBCASE 1, Case 1 Time 1.;61;-84,01;-94,53;-13,61;-3,65;-3,18;0,76;22,17;55,61;43,25;17,47;2,26;4,93;94,54;95,51;-84,01;-94,53;17,47;-3,65;4,93;94,54;95,51;-1,66;-6,18;10,30;15,17;650799
IF_IP2_R4_8502005_DIS3_-55, SUBCASE 1, Case 1 Time 1.;62;-81,85;-94,15;-13,61;-3,89;-3,41;0,09;20,95;54,26;42,87;18,27;2,06;4,98;94,16;94,68;-81,85;-94,15;18,27;-3,89;4,98;94,16;94,68;-1,43;-4,88;10,22;15,04;650799
IF_CR_R1_8501009_DIS3_82, SUBCASE 1, Case 1 Time 1.;57;-81,99;-90,93;-11,93;-2,98;-2,42;0,54;21,81;54,25;41,50;15,75;2,58;4,89;90,94;92,29;-81,99;-90,93;15,75;-2,98;4,89;90,94;92,29;-1,64;-6,98;9,44;14,66;650799
IF_CR_R1_8501009_DIS3_23, SUBCASE 1, Case 1 Time 1.;55;-80,36;-90,72;-11,98;-3,16;-2,60;1,00;20,98;53,29;41,25;15,27;2,38;4,94;90,73;91,66;-80,36;-90,72;15,27;-3,16;4,94;90,73;91,66;-1,44;-5,95;9,34;14,56;650799
IF_CR_R1_8501009_DIS1_82, SUBCASE 1, Case 1 Time 1.;39;-80,76;-89,59;-12,00;-2,95;-2,46;0,47;22,05;52,76;40,34;15,73;2,41;4,66;89,60;91,00;-80,76;-89,59;15,73;-2,95;4,66;89,60;91,00;-1,67;-7,05;9,53;14,45;650799
IF_CR_R1_8501009_DIS3_-55, SUBCASE 1, Case 1 Time 1.;56;-78,32;-90,50;-11,99;-3,40;-2,83;0,27;19,85;52,01;40,93;16,04;2,11;5,01;90,51;90,97;-78,32;-90,50;16,04;-3,40;5,01;90,51;90,97;-1,21;-4,67;9,27;14,45;650799
IF_CR_R1_8501009_DIS1_23, SUBCASE 1, Case 1 Time 1.;37;-79,16;-89,42;-12,04;-3,13;-2,64;1,12;21,24;51,83;40,12;15,25;2,21;4,71;89,43;90,38;-79,16;-89,42;15,25;-3,13;4,71;89,43;90,38;-1,48;-6,02;9,42;14,36;650799
IF_IP2_R4_8502005_JAM2M_OUT_82, SUBCASE 1, Case 1 Time 1.;117;-80,23;-88,96;-11,14;-2,84;-2,17;0,48;20,69;53,54;40,84;15,14;2,71;4,99;88,97;90,24;-80,23;-88,96;15,14;-2,84;4,99;88,97;90,24;-1,55;-6,86;8,87;14,33;650799
IF_CR_R1_8501009_DIS1_-55, SUBCASE 1, Case 1 Time 1.;38;-77,15;-89,23;-12,04;-3,37;-2,87;0,40;20,10;50,59;39,83;15,96;1,94;4,79;89,25;89,72;-77,15;-89,23;15,96;-3,37;4,79;89,25;89,72;-1,25;-4,74;9,36;14,25;650799
IF_IP2_R4_8502005_JAM2M_OUT_23, SUBCASE 1, Case 1 Time 1.;115;-78,30;-88,39;-11,17;-3,02;-2,35;0,97;19,87;52,35;40,43;14,61;2,49;5,01;88,40;89,25;-78,30;-88,39;14,61;-3,02;5,01;88,40;89,25;-1,36;-5,84;8,79;14,18;650799
IF_IP2_R4_8502005_JAM2M_OUT_-55, SUBCASE 1, Case 1 Time 1.;116;-75,86;-87,67;-11,16;-3,26;-2,59;0,24;18,62;50,79;39,89;15,10;2,20;5,03;87,68;88,09;-75,86;-87,67;15,10;-3,26;5,03;87,68;88,09;-1,12;-4,52;8,65;13,99;650799
IF_IP2_R4_8502005_82, SUBCASE 1, Case 1 Time 1.;9;-76,84;-84,86;-11,87;-3,11;-2,59;0,81;20,19;50,96;38,98;14,86;2,36;4,55;84,86;86,08;-76,84;-84,86;14,86;-3,11;4,55;84,86;86,08;-1,62;-6,66;9,04;13,67;650799
IF_TO_R4_8502005_DIS3_82, SUBCASE 1, Case 1 Time 1.;66;-76,14;-84,04;-12,02;-3,07;-2,64;0,86;20,28;50,26;38,56;14,90;2,22;4,34;84,04;85,30;-76,14;-84,04;14,90;-3,07;4,34;84,04;85,30;-1,67;-6,53;9,16;13,55;650799
IF_IP2_R4_8502005_23, SUBCASE 1, Case 1 Time 1.;7;-75,02;-84,42;-11,88;-3,28;-2,77;0,75;19,25;49,86;38,63;15,40;2,16;4,58;84,42;85,24;-75,02;-84,42;15,40;-3,28;4,58;84,42;85,24;-1,42;-5,65;8,94;13,54;650799
IF_TO_R4_8502005_DIS3_23, SUBCASE 1, Case 1 Time 1.;64;-74,44;-83,74;-12,06;-3,25;-2,83;0,67;19,39;49,25;38,27;15,53;2,02;4,38;83,75;84,58;-74,44;-83,74;15,53;-3,25;4,38;83,75;84,58;-1,48;-5,53;9,10;13,43;650799
IF_IP2_R4_8502005_-55, SUBCASE 1, Case 1 Time 1.;8;-72,70;-83,87;-11,84;-3,52;-2,99;0,17;18,06;48,41;38,17;16,21;1,99;4,63;83,87;84,26;-72,70;-83,87;16,21;-3,52;4,63;83,87;84,26;-1,18;-4,33;8,81;13,38;650799
IF_IP2_R4_8502005_JAM2_82, SUBCASE 1, Case 1 Time 1.;81;-75,28;-82,91;-12,60;-3,34;-2,95;1,04;20,04;49,50;37,95;15,81;2,11;4,25;82,91;84,11;-75,28;-82,91;15,81;-3,34;4,25;82,91;84,11;-1,71;-6,63;9,32;13,36;650799
IF_TO_R4_8502005_DIS3_-55, SUBCASE 1, Case 1 Time 1.;65;-72,30;-83,39;-12,05;-3,50;-3,06;0,23;18,14;47,91;37,91;16,35;1,95;4,44;83,40;83,79;-72,30;-83,39;16,35;-3,50;4,44;83,40;83,79;-1,24;-4,20;8,97;13,31;650799
IF_IP2_R4_8502005_JAM2_23, SUBCASE 1, Case 1 Time 1.;79;-73,41;-82,41;-12,63;-3,53;-3,14;0,65;19,11;48,36;37,57;16,53;1,89;4,28;82,41;83,21;-73,41;-82,41;16,53;-3,53;4,28;82,41;83,21;-1,51;-5,61;9,23;13,22;650799
IF_TO_R4_8502005_JAM2M_OUT_82, SUBCASE 1, Case 1 Time 1.;123;-73,41;-81,21;-10,12;-2,59;-1,96;0,47;18,66;49,08;37,39;13,79;2,54;4,57;81,22;82,38;-73,41;-81,21;13,79;-2,59;4,57;81,22;82,38;-1,43;-6,32;8,01;13,08;650799
IF_IP2_R4_8502005_JAM2_-55, SUBCASE 1, Case 1 Time 1.;80;-71,02;-81,77;-12,63;-3,78;-3,38;0,36;17,78;46,86;37,07;17,49;1,91;4,50;81,77;82,16;-71,02;-81,77;17,49;-3,78;4,50;81,77;82,16;-1,27;-4,29;9,11;13,05;650799
IF_TO_R4_8502005_JAM2M_OUT_23, SUBCASE 1, Case 1 Time 1.;121;-71,47;-80,63;-10,14;-2,78;-2,14;0,81;17,82;47,89;36,97;13,26;2,32;4,59;80,64;81,38;-71,47;-80,63;13,26;-2,78;4,59;80,64;81,38;-1,24;-5,30;7,93;12,93;650799
IF_TO_R4_8502005_JAM2M_OUT_-55, SUBCASE 1, Case 1 Time 1.;122;-69,01;-79,89;-10,12;-3,02;-2,37;0,16;16,56;46,31;36,43;13,86;2,03;4,61;79,90;80,22;-69,01;-79,89;13,86;-3,02;4,61;79,90;80,22;-0,99;-3,97;7,78;12,74;650799
IF_TO_R4_8502005_82, SUBCASE 1, Case 1 Time 1.;12;-70,11;-77,24;-10,77;-2,83;-2,34;0,79;18,17;46,67;35,66;13,51;2,22;4,13;77,24;78,35;-70,11;-77,24;13,51;-2,83;4,13;77,24;78,35;-1,49;-6,09;8,16;12,44;650799
IF_TO_R4_8502005_23, SUBCASE 1, Case 1 Time 1.;10;-68,26;-76,77;-10,77;-3,01;-2,51;0,58;17,22;45,56;35,30;14,05;2,02;4,17;76,78;77,49;-68,26;-76,77;14,05;-3,01;4,17;76,78;77,49;-1,29;-5,08;8,08;12,31;650799
IF_TO_R4_8502005_JAM2_82, SUBCASE 1, Case 1 Time 1.;84;-68,67;-75,46;-11,38;-3,03;-2,65;1,00;17,99;45,33;34,71;14,32;2,00;3,87;75,46;76,55;-68,67;-75,46;14,32;-3,03;3,87;75,46;76,55;-1,57;-6,06;8,39;12,16;650799
IF_TO_R4_8502005_-55, SUBCASE 1, Case 1 Time 1.;11;-65,92;-76,19;-10,72;-3,24;-2,73;0,14;15,98;44,09;34,83;14,88;1,93;4,22;76,20;76,50;-65,92;-76,19;14,88;-3,24;4,22;76,20;76,50;-1,05;-3,75;7,92;12,15;650799
IF_LD_R4_8502001_DIS3_82, SUBCASE 1, Case 1 Time 1.;72;-68,14;-74,96;-10,95;-2,82;-2,46;0,82;17,94;44,80;34,31;13,61;1,98;3,84;74,96;76,08;-68,14;-74,96;13,61;-2,82;3,84;74,96;76,08;-1,55;-5,98;8,21;12,08;650799
IF_TO_R4_8502005_JAM2_23, SUBCASE 1, Case 1 Time 1.;82;-66,78;-74,93;-11,41;-3,22;-2,83;0,47;17,05;44,18;34,32;15,03;1,79;3,89;74,93;75,63;-66,78;-74,93;15,03;-3,22;3,89;74,93;75,63;-1,37;-5,05;8,31;12,01;650799
IF_LD_R4_8502001_DIS3_23, SUBCASE 1, Case 1 Time 1.;70;-66,38;-74,59;-10,98;-3,00;-2,64;0,54;17,04;43,75;34,00;14,23;1,77;3,88;74,59;75,30;-66,38;-74,59;14,23;-3,00;3,88;74,59;75,30;-1,35;-4,96;8,11;11,96;650799
IF_TO_R4_8502005_JAM2_-55, SUBCASE 1, Case 1 Time 1.;83;-64,37;-74,27;-11,38;-3,47;-3,07;0,29;15,67;42,66;33,81;15,97;1,87;4,09;74,27;74,58;-64,37;-74,27;15,97;-3,47;4,09;74,27;74,58;-1,13;-3,71;8,16;11,85;650799
IF_IP2_R4_8502005_JAM2M_IN_-55, SUBCASE 1, Case 1 Time 1.;113;-62,36;-71,35;-14,55;-4,47;-4,47;0,32;16,02;40,06;32,14;20,90;1,58;5,69;71,35;71,78;-62,36;-71,35;20,90;-4,47;5,69;71,35;71,78;-1,48;-3,85;9,64;11,83;650624
IF_LD_R4_8502001_DIS3_-55, SUBCASE 1, Case 1 Time 1.;71;-64,16;-74,15;-10,95;-3,25;-2,86;0,19;15,70;42,36;33,60;15,13;1,86;3,94;74,16;74,44;-64,16;-74,15;15,13;-3,25;3,94;74,16;74,44;-1,11;-3,65;7,99;11,82;650799
IF_LD_R4_8502001_JAM2_82, SUBCASE 1, Case 1 Time 1.;90;-66,31;-72,92;-10,12;-2,68;-2,19;0,82;16,89;44,23;33,78;12,71;2,16;3,90;72,92;73,95;-66,31;-72,92;12,71;-2,68;3,90;72,92;73,95;-1,42;-5,76;7,63;11,75;650799
IF_LD_R4_8502001_82, SUBCASE 1, Case 1 Time 1.;18;-66,26;-72,78;-10,49;-2,81;-2,36;0,96;16,92;44,12;33,73;13,24;2,09;3,82;72,79;73,81;-66,26;-72,78;13,24;-2,81;3,82;72,79;73,81;-1,46;-5,76;7,79;11,72;650799
IF_IP2_R4_8502005_JAM2M_IN_82, SUBCASE 1, Case 1 Time 1.;114;-66,53;-72,38;-14,52;-4,02;-4,04;1,37;18,69;42,57;32,93;19,26;1,17;5,29;72,38;73,50;-66,53;-72,38;19,26;-4,02;5,29;72,38;73,50;-1,92;-6,20;9,86;11,67;650799
IF_LD_R4_8502001_23, SUBCASE 1, Case 1 Time 1.;16;-64,28;-72,16;-10,47;-2,98;-2,53;0,36;15,94;42,92;33,31;13,84;1,89;3,85;72,17;72,81;-64,28;-72,16;13,84;-2,98;3,85;72,17;72,81;-1,26;-4,73;7,68;11,56;650799
IF_LD_R4_8502001_JAM2_23, SUBCASE 1, Case 1 Time 1.;88;-64,19;-72,14;-10,10;-2,85;-2,37;0,44;15,87;42,95;33,28;13,27;1,94;3,92;72,15;72,79;-64,19;-72,14;13,27;-2,85;3,92;72,15;72,79;-1,22;-4,72;7,50;11,56;650799
IF_IP2_R4_8502005_JAM2M_IN_23, SUBCASE 1, Case 1 Time 1.;112;-64,70;-71,92;-14,56;-4,21;-4,23;0,32;17,52;41,49;32,59;19,99;1,29;5,46;71,92;72,69;-64,70;-71,92;19,99;-4,21;5,46;71,92;72,69;-1,72;-5,18;9,75;11,55;650799
IF_LD_R4_8502001_-55, SUBCASE 1, Case 1 Time 1.;17;-61,77;-71,39;-10,39;-3,21;-2,74;0,04;14,57;41,34;32,75;14,70;1,92;3,89;71,39;71,64;-61,77;-71,39;14,70;-3,21;3,89;71,39;71,64;-1,01;-3,40;7,51;11,38;650799
IF_LD_R4_8502001_JAM2_-55, SUBCASE 1, Case 1 Time 1.;89;-61,51;-71,16;-10,02;-3,09;-2,58;0,02;14,51;41,24;32,63;14,11;1,92;3,94;71,17;71,41;-61,51;-71,16;14,11;-3,09;3,94;71,17;71,41;-0,97;-3,37;7,32;11,34;650799
IF_TO_R4_8502005_JAM2M_IN_INSF_-55, SUBCASE 1, Case 1 Time 1.;119;-53,90;-61,90;-12,69;-3,98;-3,96;0,20;13,28;34,75;27,98;18,57;1,53;5,05;61,90;62,23;-53,90;-61,90;18,57;-3,98;5,05;61,90;62,23;-1,26;-3,10;8,29;10,55;650624
IF_LD_R2_8502001_82, SUBCASE 1, Case 1 Time 1.;15;-58,89;-64,34;-10,11;-2,75;-2,42;1,07;15,17;38,99;29,83;12,88;1,74;3,39;64,35;65,28;-58,89;-64,34;12,88;-2,75;3,39;64,35;65,28;-1,41;-5,25;7,27;10,37;650799
IF_IP1_R1_8502005_JAM2M_OUT_82, SUBCASE 1, Case 1 Time 1.;111;-57,30;-63,50;-6,22;-1,30;-1,10;0,65;12,12;37,67;28,28;10,52;2,10;3,86;63,52;64,72;-57,30;-63,50;10,52;2,10;3,86;63,52;64,72;-0,97;-5,53;5,59;10,28;650799
IF_LD_R2_8502001_JAM2_82, SUBCASE 1, Case 1 Time 1.;87;-57,80;-63,33;-8,95;-2,37;-1,95;0,71;14,77;38,62;29,44;11,19;1,89;3,36;63,33;64,27;-57,80;-63,33;11,19;-2,37;3,36;63,33;64,27;-1,27;-5,13;6,69;10,21;650799
IF_LD_R2_8502001_23, SUBCASE 1, Case 1 Time 1.;13;-56,89;-63,70;-10,07;-2,92;-2,59;0,17;14,20;37,79;29,40;13,56;1,54;3,54;63,71;64,27;-56,89;-63,70;13,56;-2,92;3,54;63,71;64,27;-1,21;-4,23;7,16;10,21;650799
IF_IP1_R1_8502005_JAM2M_OUT_23, SUBCASE 1, Case 1 Time 1.;109;-55,57;-63,18;-6,26;-1,49;-1,02;0,03;11,98;36,62;27,97;10,02;1,90;3,90;63,19;63,91;-55,57;-63,18;10,02;1,90;3,90;63,19;63,91;-0,77;-4,49;5,49;10,15;650799
IF_TO_R4_8502005_JAM2M_IN_INSF_82, SUBCASE 1, Case 1 Time 1.;120;-57,93;-62,76;-12,75;-3,55;-3,57;1,19;15,95;37,15;28,69;17,06;1,08;4,68;62,76;63,74;-57,93;-62,76;17,06;-3,55;4,68;62,76;63,74;-1,72;-5,44;8,54;10,12;650799
IF_LD_R2_8502001_JAM2_23, SUBCASE 1, Case 1 Time 1.;85;-55,74;-62,61;-8,92;-2,55;-2,12;0,34;13,76;37,36;28,96;11,77;1,68;3,38;62,62;63,17;-55,74;-62,61;11,77;-2,55;3,38;62,62;63,17;-1,07;-4,10;6,59;10,03;650799
IF_IP1_R1_8502005_JAM2_82, SUBCASE 1, Case 1 Time 1.;78;-56,46;-62,02;-8,86;-2,15;-1,88;0,23;15,57;36,95;28,15;11,17;1,62;3,17;62,03;63,14;-56,46;-62,02;11,17;-2,15;3,17;62,03;63,14;-1,26;-5,21;6,84;10,03;650799
IF_LD_R2_8502001_-55, SUBCASE 1, Case 1 Time 1.;14;-54,34;-62,89;-9,97;-3,15;-2,80;0,05;12,67;36,20;28,83;14,41;1,73;3,72;62,89;63,11;-54,34;-62,89;14,41;-3,15;3,72;62,89;63,11;-0,95;-2,87;6,97;10,02;650799
IF_TO_R4_8502005_JAM2M_IN_INSF_23, SUBCASE 1, Case 1 Time 1.;118;-56,16;-62,38;-12,75;-3,74;-3,74;0,14;14,77;36,12;28,38;17,74;1,23;4,84;62,38;63,02;-56,16;-62,38;17,74;-3,74;4,84;62,38;63,02;-1,51;-4,44;8,45;10,01;650799
IF_IP1_R1_8502005_JAM2M_OUT_-55, SUBCASE 1, Case 1 Time 1.;110;-53,36;-62,77;-6,26;-1,72;-1,24;0,20;11,90;35,22;27,58;9,37;1,61;3,94;62,79;63,00;-53,36;-62,77;9,37;-1,72;3,94;62,79;63,00;-0,54;-3,19;5,41;10,01;650799
IF_IP1_R1_8502005_82, SUBCASE 1, Case 1 Time 1.;6;-56,26;-61,86;-8,49;-2,04;-1,73;0,14;15,33;36,93;28,09;11,01;1,69;3,24;61,86;62,97;-56,26;-61,86;11,01;-2,04;3,24;61,86;62,97;-1,21;-5,20;6,64;10,00;650799
IF_IP1_R1_8502005_JAM2_23, SUBCASE 1, Case 1 Time 1.;76;-54,83;-61,81;-8,92;-2,34;-2,07;0,75;14,73;35,96;27,90;11,33;1,42;3,21;61,81;62,47;-54,83;-61,81;11,33;-2,34;3,21;61,81;62,47;-1,08;-4,23;6,83;9,92;650799
IF_IP1_R1_8502005_23, SUBCASE 1, Case 1 Time 1.;4;-54,61;-61,63;-8,51;-2,22;-1,90;0,81;14,54;35,95;27,83;10,78;1,49;3,30;61,64;62,29;-54,61;-61,63;10,78;-2,22;3,30;61,64;62,29;-1,02;-4,22;6,61;9,89;650799
IF_LD_R2_8502001_JAM2_-55, SUBCASE 1, Case 1 Time 1.;86;-53,11;-61,70;-8,84;-2,78;-2,34;0,16;12,34;35,70;28,34;12,64;1,72;3,41;61,70;61,88;-53,11;-61,70;12,64;-2,78;3,41;61,70;61,88;-0,82;-2,74;6,39;9,83;650799
IF_IP1_R1_8502005_JAM2_-55, SUBCASE 1, Case 1 Time 1.;77;-52,75;-61,56;-8,95;-2,60;-2,31;0,01;13,43;34,65;27,56;12,18;1,42;3,28;61,56;61,77;-52,75;-61,56;12,18;-2,60;3,28;61,56;61,77;-0,83;-2,88;6,69;9,81;650799
IF_IP1_R1_8502005_-55, SUBCASE 1, Case 1 Time 1.;5;-52,51;-61,36;-8,49;-2,46;-2,12;0,05;13,27;34,63;27,48;11,54;1,46;3,37;61,37;61,56;-52,51;-61,36;11,54;-2,46;3,37;61,37;61,56;-0,77;-2,87;6,44;9,78;650799
IF_LD_R4_8502001_JAM2M_INSF_-55, SUBCASE 1, Case 1 Time 1.;128;-41,00;-47,38;-10,30;-3,43;-3,38;0,32;9,06;26,75;22,66;15,95;1,43;4,33;47,38;47,67;-41,00;-47,38;15,95;-3,43;4,33;47,38;47,67;-0,97;-1,91;6,43;9,01;650624
IF_LD_R2_8502001_JAM2M_INSF_-55, SUBCASE 1, Case 1 Time 1.;125;-36,24;-42,06;-9,56;-3,23;-3,21;0,25;7,86;23,53;20,79;15,03;1,31;4,10;42,06;42,35;-36,24;-42,06;15,03;-3,23;4,10;42,06;42,35;-0,89;-1,54;5,88;8,41;650624
IF_LD_R4_8502001_JAM2M_INSF_23, SUBCASE 1, Case 1 Time 1.;127;-43,00;-47,55;-10,47;-3,22;-3,22;0,48;10,47;27,88;21,96;15,31;1,13;4,19;47,56;48,05;-43,00;-47,55;15,31;-3,22;4,19;47,56;48,05;-1,24;-3,27;6,61;8,37;650624
IF_LD_R4_8502001_JAM2M_INSF_82, SUBCASE 1, Case 1 Time 1.;129;-44,80;-47,97;-10,50;-3,04;-3,05;0,70;11,67;28,93;22,29;14,65;0,92;4,03;47,97;48,74;-44,80;-47,97;14,65;-3,04;4,03;47,97;48,74;-1,45;-4,29;6,72;7,86;650624
IF_LD_R2_8502001_JAM2M_INSF_23, SUBCASE 1, Case 1 Time 1.;124;-38,62;-42,68;-9,70;-2,99;-3,02;0,56;9,40;24,98;19,73;14,26;1,00;3,91;42,68;43,13;-38,62;-42,68;14,26;-2,99;3,91;42,68;43,13;-1,16;-2,90;6,10;7,75;650624
IF_LD_R2_8502001_DIS3_82, SUBCASE 1, Case 1 Time 1.;69;-43,70;-47,42;-7,25;-1,88;-1,64;0,50;11,41;28,86;21,92;8,92;1,35;2,37;47,42;48,23;-43,70;-47,42;8,92;-1,88;2,37;47,42;48,23;-1,07;-4,14;5,28;7,66;650799
IF_LD_R2_8502001_DIS3_23, SUBCASE 1, Case 1 Time 1.;67;-41,95;-47,07;-7,24;-2,06;-1,82;0,19;10,49;27,81;21,61;9,61;1,15;2,48;47,07;47,48;-41,95;-47,07;9,61;-2,06;2,48;47,07;47,48;-0,88;-3,14;5,22;7,54;650799
IF_LD_R2_8502001_DIS3_-55, SUBCASE 1, Case 1 Time 1.;68;-39,71;-46,62;-7,18;-2,30;-2,03;0,29;9,03;26,41;21,19;10,52;1,37;2,68;46,62;46,69;-39,71;-46,62;10,52;-2,30;2,68;46,62;46,69;-0,62;-1,79;5,04;7,42;650799
IF_LD_R2_8502001_JAM2M_INSF_82, SUBCASE 1, Case 1 Time 1.;126;-40,53;-43,23;-9,73;-2,81;-2,85;0,63;10,63;26,11;20,11;13,61;0,81;3,75;43,23;43,95;-40,53;-43,23;13,61;-2,81;3,75;43,23;43,95;-1,36;-3,91;6,20;7,24;650624
IF_IP1_R1_8502005_DIS3_82, SUBCASE 1, Case 1 Time 1.;60;-37,69;-40,87;-5,76;-1,33;-1,15;0,10;10,34;24,66;18,57;7,47;1,14;2,11;40,87;41,77;-37,69;-40,87;7,47;-1,33;2,11;40,87;41,77;-0,88;-3,84;4,46;6,63;650799
IF_IP1_R1_8502005_DIS3_23, SUBCASE 1, Case 1 Time 1.;58;-36,02;-40,62;-5,76;-1,51;-1,32;0,56;9,58;23,65;18,30;7,30;0,95;2,17;40,63;41,05;-36,02;-40,62;7,30;-1,51;2,17;40,63;41,05;-0,69;-2,85;4,40;6,52;650799
IF_IP1_R1_8502005_DIS1_82, SUBCASE 1, Case 1 Time 1.;42;-36,91;-39,99;-5,78;-1,32;-1,17;0,21;10,42;23,93;18,03;7,43;1,06;1,98;40,00;40,93;-36,91;-39,99;7,43;-1,32;1,98;40,00;40,93;-0,89;-3,82;4,49;6,50;650799
IF_IP1_R1_8502005_DIS3_-55, SUBCASE 1, Case 1 Time 1.;59;-33,89;-40,32;-5,71;-1,75;-1,53;0,16;8,20;22,31;17,93;8,09;1,11;2,24;40,32;40,34;-33,89;-40,32;8,09;-1,75;2,24;40,32;40,34;-0,43;-1,50;4,23;6,41;650799
IF_IP1_R1_8502005_DIS1_23, SUBCASE 1, Case 1 Time 1.;40;-35,28;-39,79;-5,78;-1,50;-1,34;0,47;9,65;22,96;17,77;7,27;0,87;2,04;39,79;40,24;-35,28;-39,79;7,27;-1,50;2,04;39,79;40,24;-0,70;-2,83;4,44;6,39;650799
IF_LD_R2_8502001_DIS1_INSF_82, SUBCASE 1, Case 1 Time 1.;51;-36,60;-39,45;-5,98;-1,54;-1,33;0,35;9,49;24,24;18,31;7,30;1,20;2,01;39,45;40,17;-36,60;-39,45;7,30;-1,54;2,01;39,45;40,17;-0,91;-3,60;4,35;6,38;650799
IF_LD_R2_8502001_DIS1_INSF_23, SUBCASE 1, Case 1 Time 1.;49;-35,07;-39,35;-6,00;-1,74;-1,51;0,13;8,61;23,33;18,11;8,03;1,01;2,08;39,35;39,68;-35,07;-39,35;8,03;-1,74;2,08;39,35;39,68;-0,72;-2,59;4,26;6,30;650799
IF_IP1_R1_8502005_DIS1_-55, SUBCASE 1, Case 1 Time 1.;41;-33,18;-39,53;-5,73;-1,73;-1,55;0,16;8,25;21,66;17,44;8,03;1,03;2,13;39,54;39,55;-33,18;-39,53;8,03;-1,73;2,13;39,54;39,55;-0,44;-1,48;4,26;6,28;650799
IF_LD_R2_8502001_DIS1_INSF_-55, SUBCASE 1, Case 1 Time 1.;50;-33,34;-39,47;-6,02;-2,00;-1,74;0,48;7,29;22,26;17,95;9,05;1,25;2,30;39,47;39,50;-33,34;-39,47;9,05;-2,00;2,30;39,47;39,50;-0,48;-1,30;4,19;6,27;650799
IF_LD_R2_8502001_FS11_-55, SUBCASE 1, Case 1 Time 1.;32;-8,06;-7,80;-6,06;-2,31;-2,52;0,08;0,41;3,09;9,06;10,64;0,97;3,10;12,13;23,12;-8,06;9,06;10,64;-2,31;3,10;12,13;23,12;-0,25;-0,16;2,20;5,14;650624
IF_CR_R1_8501009_FS11_82, SUBCASE 1, Case 1 Time 1.;21;-26,28;-28,65;-1,33;-0,33;-0,50;0,16;2,49;17,51;12,59;4,20;1,66;2,10;28,66;29,33;-26,28;-28,65;4,20;1,66;2,10;28,66;29,33;-0,29;-2,82;1,47;4,66;650799
IF_LD_R2_8502001_FS11_23, SUBCASE 1, Case 1 Time 1.;31;-7,84;-8,93;-5,73;-2,08;-2,31;0,26;0,90;4,62;6,68;9,83;0,67;2,90;10,12;20,37;-7,84;-8,93;9,83;-2,08;2,90;10,12;20,37;-0,51;-1,51;2,37;4,53;650624
IF_LD_R4_8502001_DIS1_INSF_82, SUBCASE 1, Case 1 Time 1.;54;-26,27;-27,90;-3,75;-0,95;-0,71;0,14;6,37;17,71;13,14;5,00;1,06;1,55;27,90;28,50;-26,27;-27,90;5,00;1,06;1,55;27,90;28,50;-0,63;-2,83;2,78;4,53;650799
IF_CR_R1_8501009_FS11_23, SUBCASE 1, Case 1 Time 1.;19;-24,50;-28,29;-1,13;-0,30;-0,49;0,38;1,99;16,43;12,25;3,66;1,48;2,15;28,30;28,49;-24,50;-28,29;3,66;1,48;2,15;28,30;28,49;-0,09;-1,81;1,39;4,53;650799
IF_LD_R4_8502001_DIS1_INSF_23, SUBCASE 1, Case 1 Time 1.;52;-24,56;-27,60;-3,72;-1,13;-0,88;0,13;5,58;16,68;12,84;5,06;0,87;1,58;27,60;27,81;-24,56;-27,60;5,06;-1,13;1,58;27,60;27,81;-0,43;-1,82;2,69;4,42;650799
IF_CR_R1_8501009_FS11_-55, SUBCASE 1, Case 1 Time 1.;20;-22,23;-27,83;-1,72;-0,45;-0,61;0,19;1,81;14,99;12,13;2,96;1,23;2,21;27,84;27,68;-22,23;-27,83;2,96;1,23;2,21;27,84;27,68;0,17;-0,44;1,18;4,40;650799
IF_LD_R4_8502001_DIS1_INSF_-55, SUBCASE 1, Case 1 Time 1.;53;-22,38;-27,22;-3,64;-1,37;-1,08;0,19;4,19;15,31;12,71;5,96;1,09;1,65;27,22;27,21;-22,38;-27,22;5,96;-1,37;1,65;27,22;27,21;-0,18;-0,48;2,53;4,32;650799
IF_LD_R2_8502001_FS11_82, SUBCASE 1, Case 1 Time 1.;33;-10,18;-10,26;-5,76;-1,90;-2,14;0,21;2,29;5,78;5,02;9,18;0,54;2,74;10,27;18,33;-10,18;-10,26;9,18;-1,90;2,74;10,27;18,33;-0,72;-2,54;2,49;4,07;650624
IF_LD_R4_8502001_FS11_-55, SUBCASE 1, Case 1 Time 1.;35;-10,39;-13,24;-3,52;-1,52;-1,42;0,05;0,77;7,28;9,08;6,56;0,98;1,81;13,24;16,58;-10,39;-13,24;6,56;-1,52;1,81;13,24;16,58;-0,08;-0,07;1,66;3,68;650624
IF_TO_R4_8502005_DIS1_82, SUBCASE 1, Case 1 Time 1.;48;-18,44;-19,14;-2,35;-0,57;-0,48;0,23;4,24;12,57;9,10;3,48;0,87;1,16;19,14;19,68;-18,44;-19,14;3,48;0,87;1,16;19,14;19,68;-0,44;-2,32;1,78;3,13;650799
IF_LD_R4_8502001_FS11_23, SUBCASE 1, Case 1 Time 1.;34;-12,93;-14,03;-3,60;-1,29;-1,21;0,03;2,41;8,85;6,75;5,75;0,69;1,62;14,04;14,45;-12,93;-14,03;5,75;-1,29;1,62;14,04;14,45;-0,34;-1,43;1,84;3,03;650624
IF_TO_R4_8502005_DIS1_23, SUBCASE 1, Case 1 Time 1.;46;-16,75;-18,86;-2,32;-0,75;-0,52;0,17;3,65;11,54;8,80;3,20;0,68;1,18;18,86;19,00;-16,75;-18,86;3,20;-0,75;1,18;18,86;19,00;-0,24;-1,30;1,68;3,02;650799
IF_TO_R4_8502005_DIS1_-55, SUBCASE 1, Case 1 Time 1.;47;-14,58;-18,49;-2,23;-0,99;-0,72;0,29;2,28;10,18;9,39;4,08;0,90;1,26;18,50;18,54;-14,58;-18,49;4,08;-0,99;1,26;18,50;18,54;0,01;0,04;1,53;2,95;650799
IF_IP2_R4_8502005_FS11_82, SUBCASE 1, Case 1 Time 1.;27;-17,44;-17,94;-2,51;-0,67;-0,47;0,37;4,06;11,92;8,54;3,35;0,79;1,17;17,94;18,44;-17,44;-17,94;3,35;0,79;1,17;17,94;18,44;-0,43;-2,40;1,75;2,93;650799
IF_IP2_R4_8502005_DIS1_82, SUBCASE 1, Case 1 Time 1.;45;-17,30;-17,86;-2,25;-0,54;-0,45;0,28;4,06;11,73;8,42;3,31;0,81;1,09;17,86;18,41;-17,30;-17,86;3,31;0,81;1,09;17,86;18,41;-0,42;-2,30;1,70;2,92;650799
IF_TO_R4_8502005_FS11_-55, SUBCASE 1, Case 1 Time 1.;29;-12,33;-15,79;-2,40;-1,11;-0,87;0,23;1,48;8,71;8,86;4,53;0,93;1,18;15,79;16,10;-12,33;-15,79;4,53;-1,11;1,18;15,79;16,10;0,02;0,03;1,39;2,92;650624
IF_IP2_R4_8502005_FS11_-55, SUBCASE 1, Case 1 Time 1.;26;-13,12;-16,78;-2,32;-1,06;-0,80;0,28;1,87;9,25;8,90;4,33;0,89;1,20;16,78;16,98;-13,12;-16,78;4,33;-1,06;1,20;16,78;16,98;0,03;-0,01;1,44;2,84;650624
IF_IP2_R4_8502005_DIS1_23, SUBCASE 1, Case 1 Time 1.;43;-15,69;-17,68;-2,23;-0,72;-0,50;0,24;3,54;10,75;8,17;3,05;0,62;1,13;17,68;17,83;-15,69;-17,68;3,05;-0,72;1,13;17,68;17,83;-0,23;-1,31;1,63;2,83;650799
IF_IP2_R4_8502005_FS11_23, SUBCASE 1, Case 1 Time 1.;25;-15,56;-17,43;-2,45;-0,84;-0,62;0,25;3,31;10,77;8,15;3,50;0,60;1,14;17,43;17,60;-15,56;-17,43;3,50;-0,84;1,14;17,43;17,60;-0,23;-1,37;1,62;2,80;650799
IF_TO_R4_8502005_FS11_82, SUBCASE 1, Case 1 Time 1.;30;-16,71;-17,04;-2,58;-0,71;-0,52;0,40;3,85;11,42;8,18;3,22;0,74;1,17;17,04;17,51;-16,71;-17,04;3,22;0,74;1,17;17,04;17,51;-0,45;-2,35;1,70;2,78;650799
IF_IP2_R4_8502005_DIS1_-55, SUBCASE 1, Case 1 Time 1.;44;-13,63;-17,44;-2,16;-0,96;-0,71;0,30;2,22;9,46;8,85;3,96;0,83;1,21;17,44;17,51;-13,63;-17,44;3,96;-0,96;1,21;17,44;17,51;0,03;0,03;1,47;2,78;650799
IF_TO_R4_8502005_FS11_23, SUBCASE 1, Case 1 Time 1.;28;-14,80;-16,50;-2,52;-0,88;-0,68;0,17;2,96;10,25;7,77;3,69;0,60;1,07;16,50;16,68;-14,80;-16,50;3,69;-0,88;1,07;16,50;16,68;-0,24;-1,33;1,57;2,65;650799
IF_LD_R4_8502001_FS11_82, SUBCASE 1, Case 1 Time 1.;36;-14,90;-14,89;-3,63;-1,11;-1,04;0,31;3,50;10,04;7,17;5,10;0,45;1,47;14,90;15,13;-14,90;-14,89;5,10;-1,11;1,47;14,90;15,13;-0,54;-2,46;1,95;2,54;650624
IF_IP1_R1_8502005_FS11_82, SUBCASE 1, Case 1 Time 1.;24;-12,97;-13,38;-1,37;-0,18;-0,45;0,10;0,31;8,71;6,04;2,83;0,93;0,95;13,38;14,16;-12,97;-13,38;2,83;0,93;0,95;13,38;14,16;-0,21;-1,75;0,66;2,25;650799
IF_IP1_R1_8502005_FS11_23, SUBCASE 1, Case 1 Time 1.;22;-11,16;-12,96;-0,79;-0,15;-0,31;0,23;0,63;7,59;5,67;1,63;0,74;1,00;12,97;13,09;-11,16;-12,96;1,63;0,74;1,00;12,97;13,09;-0,01;-0,73;0,55;2,08;650799
IF_IP1_R1_8502005_FS11_-55, SUBCASE 1, Case 1 Time 1.;23;-8,82;-12,43;-0,96;-0,26;-0,43;0,09;0,81;6,37;6,37;1,68;0,66;1,07;12,45;12,31;-8,82;-12,43;1,68;0,66;1,07;12,45;12,31;0,25;0,64;0,36;1,96;650799
IF_IP2_JAM2M_IN_-55, SUBCASE 1, Case 1 Time 1.;95;-1,67;-1,81;-1,38;-0,36;-0,40;0,11;0,88;3,23;3,89;1,37;0,41;0,32;3,89;4,48;3,23;3,89;-1,38;0,41;-0,40;3,89;4,48;0,14;1,71;0,27;1,00;650624
IF_LD_JAM2M_IN_-55, SUBCASE 1, Case 1 Time 1.;107;-3,06;-2,22;-1,46;-0,37;-0,57;0,43;0,77;5,92;6,27;0,91;0,50;0,34;6,27;6,23;5,92;6,27;-1,46;0,50;-0,57;6,27;6,23;0,25;2,19;-0,40;0,99;650798
IF_LD_JAM2M_IN_82, SUBCASE 1, Case 1 Time 1.;108;-1,28;-2,56;-1,57;-0,55;-0,52;0,06;0,33;0,94;1,38;1,70;0,43;0,38;2,76;3,98;-1,28;-2,56;1,70;-0,55;-0,52;2,76;3,98;-0,23;-0,23;-0,05;0,89;650624
IF_TO_JAM2M_IN_-55, SUBCASE 1, Case 1 Time 1.;101;-1,65;-1,88;-1,26;-0,32;-0,43;0,32;1,20;3,91;4,41;1,05;0,42;0,29;4,41;4,44;3,91;4,41;-1,26;0,42;-0,43;4,41;4,44;0,17;1,79;0,10;0,84;650624
IF_IP1_JAM2M_OUT_-55, SUBCASE 1, Case 1 Time 1.;92;-1,27;-0,75;-2,59;-0,31;-0,23;0,03;0,22;3,64;3,65;2,03;0,67;0,59;3,65;4,81;3,64;3,65;-2,59;0,67;0,59;3,65;4,81;0,38;0,74;-0,61;0,76;650821
IF_TO_JAM2M_OUT_-55, SUBCASE 1, Case 1 Time 1.;104;-1,81;-0,99;-2,37;-0,35;-0,21;0,15;0,30;4,21;4,24;1,74;0,56;0,48;4,24;4,75;4,21;4,24;-2,37;0,56;0,48;4,24;4,75;0,35;0,93;-0,51;0,75;650821
IF_IP2_JAM2M_OUT_-55, SUBCASE 1, Case 1 Time 1.;98;-0,95;-0,95;-2,20;-0,29;-0,24;0,20;0,46;3,15;3,26;1,78;0,58;0,53;3,27;3,92;3,15;3,26;-2,20;0,58;0,53;3,27;3,92;0,33;0,89;-0,39;0,67;650624
IF_IP2_JAM2M_OUT_82, SUBCASE 1, Case 1 Time 1.;99;-3,84;-4,21;-0,76;-0,35;-0,25;0,35;0,76;1,86;1,62;0,96;0,26;0,45;4,21;4,20;-3,84;-4,21;0,96;-0,35;0,45;4,21;4,20;-0,13;-1,53;-0,07;0,67;650770
IF_IP1_JAM2M_OUT_82, SUBCASE 1, Case 1 Time 1.;93;-2,99;-3,76;-1,11;-0,44;-0,31;0,10;0,53;1,58;1,80;1,19;0,32;0,50;3,76;4,05;-2,99;-3,76;1,19;-0,44;0,50;3,76;4,05;-0,07;-1,65;-0,35;0,66;650624
IF_TO_JAM2M_OUT_82, SUBCASE 1, Case 1 Time 1.;105;-2,72;-3,37;-0,83;-0,39;-0,27;0,09;0,78;1,37;1,57;0,98;0,27;0,40;3,37;3,51;-2,72;-3,37;0,98;-0,39;0,40;3,37;3,51;-0,11;-1,48;-0,20;0,66;650624
IF_IP2_JAM2M_IN_82, SUBCASE 1, Case 1 Time 1.;96;-3,43;-3,44;-1,49;-0,50;-0,44;0,04;0,41;1,43;0,84;1,99;0,19;0,14;3,44;4,05;-3,43;-3,44;1,99;-0,50;-0,44;3,44;4,05;-0,33;-0,70;0,59;0,64;650821
IF_TO_JAM2M_IN_82, SUBCASE 1, Case 1 Time 1.;102;-2,76;-2,81;-1,49;-0,51;-0,45;0,04;0,22;0,95;0,66;1,88;0,21;0,17;2,81;3,51;-2,76;-2,81;1,88;-0,51;-0,45;2,81;3,51;-0,30;-0,62;0,43;0,56;650821
IF_IP1_JAM2M_OUT_23, SUBCASE 1, Case 1 Time 1.;91;-0,57;-1,62;-1,09;-0,23;-0,15;0,09;0,49;0,72;1,06;0,99;0,36;0,41;1,66;2,03;0,72;-1,62;-1,09;0,36;0,41;1,66;2,03;0,12;-0,65;-0,40;0,44;650853
IF_LD_JAM2M_IN_23, SUBCASE 1, Case 1 Time 1.;106;-1,55;-0,98;-0,94;-0,28;-0,40;0,06;0,68;2,15;2,25;0,75;0,26;0,24;2,25;2,43;2,15;2,25;-0,94;-0,28;-0,40;2,25;2,43;-0,02;0,79;-0,19;0,44;650837
IF_IP2_JAM2M_IN_23, SUBCASE 1, Case 1 Time 1.;94;-1,15;-1,41;-0,63;-0,22;-0,27;0,02;0,90;0,57;0,97;0,75;0,13;0,13;1,43;1,78;-1,15;-1,41;0,75;-0,22;-0,27;1,43;1,78;-0,12;0,33;0,46;0,33;650806
IF_TO_JAM2M_OUT_23, SUBCASE 1, Case 1 Time 1.;103;-0,60;-1,20;-0,74;-0,18;-0,12;0,03;0,51;0,98;1,30;0,65;0,24;0,25;1,32;1,73;0,98;1,30;-0,74;0,24;0,25;1,32;1,73;0,09;-0,44;-0,32;0,30;650854
IF_IP2_JAM2M_OUT_23, SUBCASE 1, Case 1 Time 1.;97;-0,78;-1,17;-0,71;-0,14;-0,10;0,12;0,15;0,65;0,51;0,71;0,24;0,33;1,19;1,41;-0,78;-1,17;0,71;0,24;0,33;1,19;1,41;0,07;-0,49;-0,19;0,30;650852
IF_TO_JAM2M_IN_23, SUBCASE 1, Case 1 Time 1.;100;-0,42;-0,54;-0,62;-0,22;-0,29;0,03;0,48;0,35;1,03;0,68;0,13;0,10;1,05;1,25;-0,42;1,03;0,68;-0,22;-0,29;1,05;1,25;-0,09;0,41;0,30;0,28;650854
Ref CID;Coord Material;;;;;;;;;;;;;;;;;;;;;;;;;;
