LC_Name;LC_ID;qxMin;qyMin;qxyMin;qxzMin;qyzMin;qshearMin;qvonmisesMin;qxMax;qyMax;qxyMax;qxzMax;qyzMax;qshearMax;qvonmisesMax;qxAbsMax;qyAbsMax;qxyAbsMax;qxzAbsMax;qyzAbsMax;qshearAbsMax;qvonmisesAbsMax;qxAverage;qyAverage;qxyAverage;sigmaVonMisesMax;CriticalElemID
IF_CR_R1_8501009_JAM2_-55, SUBCASE 1, Case 1 Time 1.;74;-25,28;-22,49;-10,66;-7,40;-6,77;1,94;4,10;32,28;26,49;9,19;5,49;4,66;34,57;41,84;32,28;26,49;-10,66;-7,40;-6,77;34,57;41,84;-1,14;-0,16;0,93;9,30;652543
IF_CR_R1_8501009_-55, SUBCASE 1, Case 1 Time 1.;2;-25,63;-22,89;-10,41;-7,26;-6,64;1,96;4,15;32,06;26,55;9,03;5,38;4,57;34,30;41,43;32,06;26,55;-10,41;-7,26;-6,64;34,30;41,43;-1,12;-0,24;0,91;9,21;652543
IF_CR_R1_8501009_82, SUBCASE 1, Case 1 Time 1.;3;-28,91;-24,66;-8,79;-4,85;-5,64;2,30;4,05;24,90;23,04;8,26;6,00;4,48;30,36;36,10;-28,91;-24,66;-8,79;6,00;-5,64;30,36;36,10;-0,53;0,80;0,56;8,02;652565
IF_LD_R4_8502001_JAM2M_INSF_-55, SUBCASE 1, Case 1 Time 1.;128;-14,12;-10,09;-10,38;-4,87;-4,37;0,69;0,85;28,55;24,20;7,96;3,64;3,30;30,28;35,98;28,55;24,20;-10,38;-4,87;-4,37;30,28;35,98;0,65;1,76;0,51;8,00;652543
IF_CR_R1_8501009_JAM2_82, SUBCASE 1, Case 1 Time 1.;75;-28,48;-24,32;-8,75;-4,96;-5,64;2,32;3,98;24,99;22,91;8,33;6,01;4,55;29,95;35,70;-28,48;-24,32;-8,75;6,01;-5,64;29,95;35,70;-0,55;0,85;0,58;7,93;652565
IF_IP2_R4_8502005_JAM2M_IN_-55, SUBCASE 1, Case 1 Time 1.;113;-16,24;-11,90;-10,57;-6,08;-5,49;1,03;1,48;26,98;21,10;7,63;4,57;3,89;29,22;35,70;26,98;21,10;-10,57;-6,08;-5,49;29,22;35,70;-0,51;0,86;0,72;7,93;652543
IF_TO_R4_8502005_JAM2M_IN_INSF_-55, SUBCASE 1, Case 1 Time 1.;119;-15,02;-10,81;-10,40;-5,53;-4,97;0,67;0,87;26,57;21,19;7,63;4,14;3,59;28,66;34,79;26,57;21,19;-10,40;-5,53;-4,97;28,66;34,79;-0,16;1,08;0,64;7,73;652543
IF_LD_R2_8502001_JAM2M_INSF_-55, SUBCASE 1, Case 1 Time 1.;125;-12,86;-9,78;-10,02;-4,62;-4,14;0,94;1,16;27,02;22,88;7,65;3,45;3,13;28,74;34,24;27,02;22,88;-10,02;-4,62;-4,14;28,74;34,24;0,71;1,76;0,49;7,61;652543
IF_LD_R4_8502001_-55, SUBCASE 1, Case 1 Time 1.;17;-18,18;-14,69;-9,51;-4,93;-4,42;1,43;1,89;26,39;22,00;7,12;3,63;3,24;28,28;33,87;26,39;22,00;-9,51;-4,93;-4,42;28,28;33,87;-0,29;0,46;0,51;7,53;652543
IF_IP2_R4_8502005_JAM2_-55, SUBCASE 1, Case 1 Time 1.;80;-18,90;-15,34;-9,35;-5,57;-5,02;1,56;2,52;25,90;21,15;6,81;4,12;3,56;27,96;33,86;25,90;21,15;-9,35;-5,57;-5,02;27,96;33,86;-0,72;0,16;0,62;7,53;652543
IF_IP2_R4_8502005_DIS3_-55, SUBCASE 1, Case 1 Time 1.;62;-18,48;-15,22;-9,79;-5,90;-5,31;1,64;2,43;25,02;19,61;7,08;4,35;3,71;27,37;33,63;25,02;19,61;-9,79;-5,90;-5,31;27,37;33,63;-0,95;-0,12;0,75;7,47;652543
IF_CR_R1_8501009_JAM2_23, SUBCASE 1, Case 1 Time 1.;73;-23,99;-22,69;-6,51;-6,01;-5,71;0,61;2,79;28,16;24,47;7,97;5,03;3,89;28,86;33,53;28,16;24,47;7,97;-6,01;-5,71;28,86;33,53;-0,77;0,46;0,73;7,45;652543
IF_TO_R4_8502005_JAM2_-55, SUBCASE 1, Case 1 Time 1.;83;-17,82;-14,27;-9,42;-5,20;-4,67;1,45;2,11;25,57;20,97;6,94;3,84;3,36;27,56;33,29;25,57;20,97;-9,42;-5,20;-4,67;27,56;33,29;-0,49;0,33;0,57;7,40;652543
IF_CR_R1_8501009_23, SUBCASE 1, Case 1 Time 1.;1;-24,46;-23,07;-6,44;-5,89;-5,60;0,65;2,88;28,01;24,57;7,88;5,02;3,82;28,68;33,23;28,01;24,57;7,88;-5,89;-5,60;28,68;33,23;-0,77;0,36;0,71;7,38;652543
IF_LD_R2_8502001_-55, SUBCASE 1, Case 1 Time 1.;14;-16,48;-12,88;-9,45;-4,78;-4,28;1,51;1,48;25,70;21,40;7,07;3,52;3,15;27,56;33,05;25,70;21,40;-9,45;-4,78;-4,28;27,56;33,05;-0,10;0,69;0,50;7,34;652543
IF_IP2_R4_8502005_-55, SUBCASE 1, Case 1 Time 1.;8;-19,69;-16,21;-8,93;-5,36;-4,82;1,80;2,73;25,27;20,92;6,52;3,94;3,43;27,28;32,98;25,27;20,92;-8,93;-5,36;-4,82;27,28;32,98;-0,78;-0,07;0,59;7,33;652543
IF_LD_R4_8502001_JAM2_-55, SUBCASE 1, Case 1 Time 1.;89;-18,08;-14,60;-9,26;-4,81;-4,31;1,49;2,00;25,50;21,22;6,91;3,53;3,15;27,40;32,88;25,50;21,22;-9,26;-4,81;-4,31;27,40;32,88;-0,36;0,32;0,49;7,31;652543
IF_TO_R4_8502005_-55, SUBCASE 1, Case 1 Time 1.;11;-18,50;-15,01;-9,04;-5,02;-4,50;1,59;2,28;24,91;20,62;6,66;3,69;3,24;26,87;32,41;24,91;20,62;-9,04;-5,02;-4,50;26,87;32,41;-0,57;0,11;0,54;7,20;652543
IF_TO_R4_8502005_DIS3_-55, SUBCASE 1, Case 1 Time 1.;65;-17,11;-13,78;-9,51;-5,39;-4,83;1,51;2,15;23,63;18,51;6,85;3,97;3,41;25,91;31,83;23,63;18,51;-9,51;-5,39;-4,83;25,91;31,83;-0,80;-0,06;0,68;7,07;652543
IF_IP2_R4_8502005_JAM2M_OUT_-55, SUBCASE 1, Case 1 Time 1.;116;-20,03;-16,80;-8,65;-5,20;-4,66;2,18;2,66;23,75;19,69;6,30;3,80;3,30;25,83;31,42;23,75;19,69;-8,65;-5,20;-4,66;25,83;31,42;-0,98;-0,48;0,63;6,98;652543
IF_LD_R4_8502001_DIS3_-55, SUBCASE 1, Case 1 Time 1.;71;-16,26;-12,85;-9,43;-5,03;-4,49;1,48;1,82;23,37;18,46;6,84;3,70;3,22;25,54;31,23;23,37;18,46;-9,43;-5,03;-4,49;25,54;31,23;-0,60;0,12;0,60;6,94;652543
IF_TO_R4_8502005_JAM2M_OUT_-55, SUBCASE 1, Case 1 Time 1.;122;-18,94;-15,67;-8,76;-4,87;-4,35;1,88;2,21;23,48;19,43;6,42;3,55;3,13;25,51;30,94;23,48;19,43;-8,76;-4,87;-4,35;25,51;30,94;-0,78;-0,29;0,57;6,88;652543
IF_CR_R1_8501009_DIS3_-55, SUBCASE 1, Case 1 Time 1.;56;-18,70;-15,43;-8,52;-5,35;-4,81;1,84;2,99;22,82;18,35;6,62;3,92;3,34;24,99;30,64;22,82;18,35;-8,52;-5,35;-4,81;24,99;30,64;-0,96;-0,40;0,67;6,81;652543
IF_LD_R4_8502001_JAM2M_INSF_23, SUBCASE 1, Case 1 Time 1.;127;-11,03;-10,69;-6,00;-3,50;-3,33;1,18;2,14;24,35;21,96;5,79;2,77;2,54;24,70;27,53;24,35;21,96;-6,00;-3,50;-3,33;24,70;27,53;0,89;2,29;0,31;6,78;652713
IF_LD_R2_8502001_JAM2_-55, SUBCASE 1, Case 1 Time 1.;86;-16,33;-12,72;-8,73;-4,42;-3,94;1,63;1,74;23,35;19,40;6,45;3,23;2,89;25,22;30,38;23,35;19,40;-8,73;-4,42;-3,94;25,22;30,38;-0,28;0,32;0,46;6,75;652543
IF_LD_R4_8502001_JAM2M_INSF_82, SUBCASE 1, Case 1 Time 1.;129;-13,99;-12,71;-6,91;-2,45;-2,66;3,02;2,61;21,15;20,34;5,40;2,67;2,88;21,15;21,92;21,15;20,34;-6,91;2,67;2,88;21,15;21,92;1,08;2,66;0,16;6,46;652713
IF_LD_R2_8502001_JAM2M_INSF_23, SUBCASE 1, Case 1 Time 1.;124;-9,64;-9,18;-5,59;-3,25;-3,10;1,20;2,10;22,72;20,62;5,49;2,58;2,36;23,04;25,65;22,72;20,62;-5,59;-3,25;-3,10;23,04;25,65;0,98;2,28;0,31;6,38;652713
IF_IP2_R4_8502005_JAM2M_OUT_82, SUBCASE 1, Case 1 Time 1.;117;-22,35;-19,02;-7,30;-2,86;-3,85;2,04;2,69;16,99;16,24;5,48;4,16;3,18;23,64;28,14;-22,35;-19,02;-7,30;4,16;-3,85;23,64;28,14;-0,47;0,49;0,28;6,25;652565
IF_LD_R4_8502001_23, SUBCASE 1, Case 1 Time 1.;16;-15,27;-15,16;-5,39;-3,57;-3,39;0,74;0,58;22,25;19,90;5,29;2,77;2,49;22,64;25,45;22,25;19,90;-5,39;-3,57;-3,39;22,64;25,45;0,02;1,04;0,31;6,04;652713
IF_LD_R2_8502001_JAM2M_INSF_82, SUBCASE 1, Case 1 Time 1.;126;-12,58;-11,39;-6,55;-2,21;-2,55;3,02;2,72;19,52;19,01;4,94;2,52;2,79;19,57;20,42;19,52;19,01;-6,55;2,52;2,79;19,57;20,42;1,17;2,66;0,15;6,04;652713
IF_IP2_R4_8502005_DIS3_82, SUBCASE 1, Case 1 Time 1.;63;-20,82;-17,48;-7,38;-3,49;-4,13;2,31;2,51;17,68;15,91;6,06;4,49;3,69;22,30;27,09;-20,82;-17,48;-7,38;4,49;-4,13;22,30;27,09;-0,42;0,85;0,40;6,02;652565
IF_IP2_R4_8502005_JAM2M_IN_23, SUBCASE 1, Case 1 Time 1.;112;-13,43;-12,25;-6,11;-4,70;-4,44;0,73;0,88;22,67;18,87;6,01;3,69;3,13;23,26;27,06;22,67;18,87;-6,11;-4,70;-4,44;23,26;27,06;-0,22;1,39;0,53;6,01;652543
IF_CR_R1_8501009_DIS3_82, SUBCASE 1, Case 1 Time 1.;57;-21,10;-17,60;-7,06;-2,97;-3,98;2,03;3,12;15,74;14,94;5,67;4,32;3,41;22,48;27,06;-21,10;-17,60;-7,06;4,32;-3,98;22,48;27,06;-0,43;0,59;0,31;6,01;652565
IF_TO_R4_8502005_JAM2M_OUT_82, SUBCASE 1, Case 1 Time 1.;123;-21,26;-18,00;-7,30;-2,61;-3,50;2,17;2,33;16,90;16,04;5,16;3,83;2,98;22,55;26,94;-21,26;-18,00;-7,30;3,83;-3,50;22,55;26,94;-0,28;0,66;0,22;5,99;652565
IF_IP2_R4_8502005_82, SUBCASE 1, Case 1 Time 1.;9;-21,21;-18,25;-7,12;-2,96;-3,69;2,44;2,77;17,95;17,35;6,02;4,02;3,23;22,49;26,84;-21,21;-18,25;-7,12;4,02;-3,69;22,49;26,84;-0,26;0,91;0,25;5,97;652565
IF_CR_R1_8501009_DIS1_-55, SUBCASE 1, Case 1 Time 1.;38;-14,95;-12,22;-9,01;-5,40;-4,82;1,06;1,71;17,62;12,63;6,89;3,95;3,29;20,57;26,48;17,62;12,63;-9,01;-5,40;-4,82;20,57;26,48;-1,48;-1,02;0,93;5,89;652543
IF_LD_R2_8502001_23, SUBCASE 1, Case 1 Time 1.;13;-13,37;-13,37;-5,21;-3,42;-3,25;1,05;0,88;21,54;19,27;5,00;2,66;2,39;21,90;24,60;21,54;19,27;-5,21;-3,42;-3,25;21,90;24,60;0,19;1,25;0,31;5,87;652713
IF_TO_R4_8502005_JAM2M_IN_INSF_23, SUBCASE 1, Case 1 Time 1.;118;-12,01;-11,20;-5,96;-4,15;-3,93;0,88;1,35;22,31;18,99;5,44;3,27;2,83;22,81;26,18;22,31;18,99;-5,96;-4,15;-3,93;22,81;26,18;0,13;1,62;0,45;5,82;652543
IF_LD_R4_8502001_JAM2_23, SUBCASE 1, Case 1 Time 1.;88;-15,24;-15,09;-5,16;-3,45;-3,28;0,54;0,50;21,33;19,08;5,13;2,67;2,40;21,71;24,42;21,33;19,08;-5,16;-3,45;-3,28;21,71;24,42;-0,05;0,89;0,30;5,79;652713
IF_IP2_R4_8502005_JAM2_82, SUBCASE 1, Case 1 Time 1.;81;-20,19;-17,47;-7,07;-3,15;-3,65;2,52;2,62;18,46;17,35;6,17;4,00;3,35;21,51;25,87;-20,19;-17,47;-7,07;4,00;-3,65;21,51;25,87;-0,20;1,11;0,28;5,75;652565
IF_LD_R4_8502001_82, SUBCASE 1, Case 1 Time 1.;18;-19,72;-16,96;-7,38;-2,53;-3,12;2,57;2,30;19,12;18,44;5,68;3,48;2,96;21,04;25,30;-19,72;18,44;-7,38;3,48;-3,12;21,04;25,30;0,22;1,42;0,16;5,74;652713
IF_LD_R2_8502001_DIS3_-55, SUBCASE 1, Case 1 Time 1.;68;-12,71;-8,95;-7,99;-3,83;-3,37;1,24;1,47;19,16;15,51;5,76;2,78;2,47;21,10;25,80;19,16;15,51;-7,99;-3,83;-3,37;21,10;25,80;-0,20;0,27;0,44;5,73;652543
IF_IP2_R4_8502005_JAM2_23, SUBCASE 1, Case 1 Time 1.;79;-15,89;-15,71;-5,02;-4,20;-3,97;0,28;1,12;21,67;18,98;5,81;3,25;2,80;22,14;25,38;21,67;18,98;5,81;-4,20;-3,97;22,14;25,38;-0,40;0,73;0,43;5,72;652713
IF_TO_R4_8502005_82, SUBCASE 1, Case 1 Time 1.;12;-20,09;-17,19;-7,13;-2,62;-3,35;2,51;2,40;17,82;17,12;5,62;3,69;3,04;21,38;25,64;-20,09;-17,19;-7,13;3,69;-3,35;21,38;25,64;-0,06;1,07;0,20;5,70;652565
IF_TO_R4_8502005_JAM2_23, SUBCASE 1, Case 1 Time 1.;82;-14,85;-14,70;-5,10;-3,82;-3,62;0,55;0,60;21,34;18,80;5,37;2,96;2,60;21,77;24,76;21,34;18,80;5,37;-3,82;-3,62;21,77;24,76;-0,18;0,90;0,38;5,69;652713
IF_IP2_R4_8502005_23, SUBCASE 1, Case 1 Time 1.;7;-16,77;-16,54;-4,83;-4,00;-3,79;0,21;1,37;21,09;18,77;5,65;3,08;2,67;21,52;24,57;21,09;18,77;5,65;-4,00;-3,79;21,52;24,57;-0,46;0,51;0,40;5,65;652713
IF_TO_R4_8502005_DIS3_82, SUBCASE 1, Case 1 Time 1.;66;-19,35;-16,14;-7,19;-2,97;-3,68;2,27;2,25;16,26;14,78;5,48;4,05;3,39;20,82;25,38;-19,35;-16,14;-7,19;4,05;-3,68;20,82;25,38;-0,28;0,91;0,32;5,64;652565
IF_LD_R4_8502001_JAM2_82, SUBCASE 1, Case 1 Time 1.;90;-19,80;-16,92;-7,30;-2,42;-3,12;2,53;2,25;18,47;17,72;5,51;3,48;2,90;21,10;25,34;-19,80;17,72;-7,30;3,48;-3,12;21,10;25,34;0,13;1,26;0,15;5,63;652565
IF_CR_R1_8501009_DIS1_82, SUBCASE 1, Case 1 Time 1.;39;-18,48;-15,17;-7,04;-3,13;-4,17;1,47;1,46;10,00;8,69;5,25;4,55;3,72;20,23;25,24;-18,48;-15,17;-7,04;4,55;-4,17;20,23;25,24;-0,98;-0,06;0,59;5,61;652565
IF_TO_R4_8502005_23, SUBCASE 1, Case 1 Time 1.;10;-15,61;-15,41;-4,91;-3,65;-3,46;0,26;0,75;20,73;18,47;5,24;2,82;2,48;21,13;23,96;20,73;18,47;5,24;-3,65;-3,46;21,13;23,96;-0,26;0,69;0,35;5,58;652713
IF_IP2_R4_8502005_DIS3_23, SUBCASE 1, Case 1 Time 1.;61;-16,31;-15,57;-5,33;-4,53;-4,27;0,21;1,15;20,86;17,51;5,70;3,51;2,95;21,46;25,11;20,86;17,51;5,70;-4,53;-4,27;21,46;25,11;-0,62;0,46;0,56;5,58;652543
IF_LD_R2_8502001_82, SUBCASE 1, Case 1 Time 1.;15;-17,65;-15,27;-7,03;-2,38;-2,93;2,65;2,28;18,52;17,86;5,38;3,22;2,89;19,02;23,13;18,52;17,86;-7,03;3,22;-2,93;19,02;23,13;0,39;1,63;0,15;5,56;652713
IF_TO_R4_8502005_JAM2_82, SUBCASE 1, Case 1 Time 1.;84;-19,21;-16,54;-7,11;-2,78;-3,31;2,55;2,31;18,14;17,23;5,74;3,67;3,14;20,56;24,83;-19,21;17,23;-7,11;3,67;-3,31;20,56;24,83;0,01;1,27;0,22;5,52;652565
IF_TO_R4_8502005_JAM2M_IN_INSF_82, SUBCASE 1, Case 1 Time 1.;120;-14,85;-13,19;-6,72;-3,11;-3,15;2,01;2,48;19,09;17,35;5,79;3,36;3,37;19,09;20,63;19,09;17,35;-6,72;3,36;3,37;19,09;20,63;0,33;2,01;0,29;5,45;652713
IF_IP2_R4_8502005_JAM2M_IN_82, SUBCASE 1, Case 1 Time 1.;114;-15,88;-14,18;-6,68;-3,66;-3,65;1,58;2,37;19,42;17,21;6,35;3,80;3,69;19,43;21,75;19,42;17,21;-6,68;3,80;3,69;19,43;21,75;-0,01;1,79;0,38;5,37;652713
IF_LD_R4_8502001_DIS3_82, SUBCASE 1, Case 1 Time 1.;72;-18,30;-15,27;-7,12;-2,61;-3,29;2,41;2,10;15,99;14,81;5,18;3,67;3,15;19,76;24,15;-18,30;-15,27;-7,12;3,67;-3,29;19,76;24,15;-0,09;1,08;0,25;5,37;652565
IF_LD_R2_8502001_DIS1_INSF_-55, SUBCASE 1, Case 1 Time 1.;50;-11,70;-8,43;-7,56;-3,47;-3,02;1,36;1,18;17,65;14,38;5,44;2,50;2,24;19,56;23,98;17,65;14,38;-7,56;-3,47;-3,02;19,56;23,98;-0,12;0,24;0,40;5,33;652543
IF_IP2_R4_8502005_JAM2M_OUT_23, SUBCASE 1, Case 1 Time 1.;115;-17,81;-17,16;-4,62;-3,83;-3,62;0,68;1,42;19,54;17,52;5,12;3,17;2,54;19,98;22,93;19,54;17,52;5,12;-3,83;-3,62;19,98;22,93;-0,66;0,12;0,43;5,26;652713
IF_LD_R2_8502001_JAM2_23, SUBCASE 1, Case 1 Time 1.;85;-13,29;-13,21;-4,60;-3,06;-2,91;0,60;0,48;19,13;17,20;4,56;2,37;2,13;19,45;21,85;19,13;17,20;-4,60;-3,06;-2,91;19,45;21,85;0,01;0,88;0,27;5,22;652713
IF_TO_R4_8502005_JAM2M_OUT_23, SUBCASE 1, Case 1 Time 1.;121;-16,69;-16,10;-4,69;-3,50;-3,31;0,41;0,84;19,27;17,27;4,80;2,84;2,37;19,67;22,41;19,27;17,27;4,80;-3,50;-3,31;19,67;22,41;-0,47;0,30;0,37;5,20;652713
IF_TO_R4_8502005_DIS3_23, SUBCASE 1, Case 1 Time 1.;64;-14,82;-14,18;-5,05;-4,02;-3,79;0,16;0,69;19,44;16,39;5,11;3,09;2,65;19,98;23,24;19,44;16,39;5,11;-4,02;-3,79;19,98;23,24;-0,49;0,52;0,48;5,16;652543
IF_IP1_R1_8502005_JAM2_-55, SUBCASE 1, Case 1 Time 1.;77;-13,05;-9,34;-7,34;-4,28;-3,78;1,48;2,33;16,12;12,02;5,42;3,10;2,61;18,47;23,23;16,12;12,02;-7,34;-4,28;-3,78;18,47;23,23;-0,87;-0,45;0,57;5,16;652543
IF_LD_R2_8502001_FS11_-55, SUBCASE 1, Case 1 Time 1.;32;-14,39;-8,60;-7,78;-3,07;-2,62;1,23;1,80;16,92;12,58;5,31;2,28;2,08;18,88;23,20;16,92;12,58;-7,78;-3,07;-2,62;18,88;23,20;-1,07;0,02;0,04;5,16;652543
IF_LD_R2_8502001_JAM2_82, SUBCASE 1, Case 1 Time 1.;87;-17,77;-15,11;-6,76;-2,07;-2,82;2,56;2,17;17,08;16,10;4,93;3,15;2,70;19,07;23,05;-17,77;16,10;-6,76;3,15;-2,82;19,07;23,05;0,20;1,25;0,11;5,12;652565
IF_LD_R4_8502001_DIS3_23, SUBCASE 1, Case 1 Time 1.;70;-13,75;-13,29;-4,96;-3,65;-3,45;0,36;0,46;19,18;16,33;4,81;2,82;2,46;19,65;22,63;19,18;16,33;-4,96;-3,65;-3,45;19,65;22,63;-0,29;0,70;0,40;5,03;652543
IF_IP1_R1_8502005_-55, SUBCASE 1, Case 1 Time 1.;5;-13,40;-9,71;-7,11;-4,14;-3,65;1,49;2,52;15,65;11,73;5,28;2,99;2,52;17,98;22,62;15,65;11,73;-7,11;-4,14;-3,65;17,98;22,62;-0,93;-0,58;0,54;5,03;652543
IF_CR_R1_8501009_DIS3_23, SUBCASE 1, Case 1 Time 1.;55;-16,62;-15,75;-4,29;-3,98;-3,77;0,56;1,82;18,64;16,22;5,30;3,34;2,58;19,10;22,18;18,64;16,22;5,30;-3,98;-3,77;19,10;22,18;-0,63;0,20;0,47;4,93;652543
IF_IP1_R1_8502005_JAM2M_OUT_82, SUBCASE 1, Case 1 Time 1.;111;-16,54;-13,41;-6,07;-2,40;-3,13;0,26;1,08;4,63;6,92;4,26;3,41;2,55;17,93;21,90;-16,54;-13,41;-6,07;3,41;-3,13;17,93;21,90;-1,43;-1,12;0,26;4,87;652565
IF_LD_R4_8502001_FS11_-55, SUBCASE 1, Case 1 Time 1.;35;-12,53;-7,83;-6,69;-2,55;-2,15;0,88;1,72;15,19;12,29;4,68;1,82;1,72;16,96;20,73;15,19;12,29;-6,69;-2,55;-2,15;16,96;20,73;-0,51;-0,05;0,11;4,61;652543
IF_LD_R4_8502001_DIS1_INSF_-55, SUBCASE 1, Case 1 Time 1.;53;-10,82;-7,62;-6,58;-2,72;-2,32;1,23;1,47;14,94;12,44;4,69;1,92;1,77;16,75;20,56;14,94;12,44;-6,58;-2,72;-2,32;16,75;20,56;-0,09;0,04;0,28;4,57;652543
IF_IP1_R1_8502005_82, SUBCASE 1, Case 1 Time 1.;6;-15,14;-12,38;-5,58;-2,22;-2,96;1,61;2,75;10,50;9,01;3,91;3,28;2,77;16,55;20,34;-15,14;-12,38;-5,58;3,28;-2,96;16,55;20,34;-0,44;0,36;0,18;4,52;652565
IF_IP1_R1_8502005_JAM2_82, SUBCASE 1, Case 1 Time 1.;78;-14,79;-12,10;-5,58;-2,23;-2,98;1,70;2,65;10,54;9,14;3,95;3,31;2,84;16,25;20,06;-14,79;-12,10;-5,58;3,31;-2,98;16,25;20,06;-0,39;0,47;0,20;4,46;652565
IF_LD_R2_8502001_DIS3_82, SUBCASE 1, Case 1 Time 1.;69;-13,88;-11,48;-5,91;-1,69;-2,46;2,29;2,16;13,93;12,58;4,19;2,62;2,43;15,30;18,95;13,93;12,58;-5,91;2,62;-2,46;15,30;18,95;0,28;1,20;0,08;4,21;652565
IF_IP1_R1_8502005_DIS3_-55, SUBCASE 1, Case 1 Time 1.;59;-10,36;-8,09;-6,26;-3,24;-2,79;0,66;1,80;11,89;8,53;4,10;2,30;2,15;14,29;18,20;11,89;8,53;-6,26;-3,24;-2,79;14,29;18,20;-0,76;-0,58;0,42;4,04;652543
IF_TO_R4_8502005_FS11_-55, SUBCASE 1, Case 1 Time 1.;29;-11,20;-7,31;-5,79;-2,26;-1,89;1,40;1,78;13,07;10,98;4,13;1,57;1,48;14,81;18,19;13,07;10,98;-5,79;-2,26;-1,89;14,81;18,19;-0,31;-0,20;0,16;4,04;652543
IF_LD_R2_8502001_DIS3_23, SUBCASE 1, Case 1 Time 1.;67;-9,49;-9,41;-3,63;-2,45;-2,32;0,68;0,59;14,87;13,27;3,45;1,90;1,70;15,14;17,08;14,87;13,27;-3,63;-2,45;-2,32;15,14;17,08;0,09;0,82;0,24;4,03;652713
IF_CR_R1_8501009_FS11_82, SUBCASE 1, Case 1 Time 1.;21;-13,48;-10,73;-5,24;-1,33;-1,72;1,76;2,54;13,28;10,18;3,67;1,91;1,36;14,71;17,77;-13,48;-10,73;-5,24;1,91;-1,72;14,71;17,77;0,55;0,43;-0,13;3,95;652565
IF_CR_R1_8501009_DIS1_23, SUBCASE 1, Case 1 Time 1.;37;-14,06;-12,76;-4,57;-4,03;-3,78;0,26;0,34;13,30;10,36;5,11;3,57;2,54;14,52;17,58;-14,06;-12,76;5,11;-4,03;-3,78;14,52;17,58;-1,16;-0,43;0,73;3,91;652543
IF_LD_R2_8502001_DIS1_INSF_82, SUBCASE 1, Case 1 Time 1.;51;-12,65;-10,41;-5,57;-1,49;-2,23;2,24;1,91;13,17;11,58;3,97;2,33;2,20;14,08;17,54;13,17;11,58;-5,57;2,33;-2,23;14,08;17,54;0,35;1,15;0,04;3,90;652565
IF_IP2_R4_8502005_FS11_-55, SUBCASE 1, Case 1 Time 1.;26;-11,23;-7,32;-5,39;-2,24;-1,87;1,46;2,07;12,37;10,56;4,29;1,55;1,54;14,10;17,34;12,37;10,56;-5,39;-2,24;-1,87;14,10;17,34;-0,34;-0,31;0,17;3,85;652543
IF_TO_R4_8502005_DIS1_-55, SUBCASE 1, Case 1 Time 1.;47;-9,76;-7,44;-5,63;-2,25;-1,87;1,16;1,59;11,87;9,89;3,92;1,55;1,59;13,73;17,05;11,87;9,89;-5,63;-2,25;-1,87;13,73;17,05;-0,20;-0,23;0,23;3,79;652543
IF_IP1_R1_8502005_DIS1_-55, SUBCASE 1, Case 1 Time 1.;41;-8,90;-8,39;-6,45;-3,26;-2,79;1,11;1,30;9,87;6,49;4,22;2,31;2,28;12,77;16,71;9,87;-8,39;-6,45;-3,26;-2,79;12,77;16,71;-0,95;-0,80;0,53;3,71;652543
IF_LD_R2_8502001_DIS1_INSF_23, SUBCASE 1, Case 1 Time 1.;49;-8,30;-8,27;-3,22;-2,06;-1,95;0,65;0,68;13,23;12,03;2,91;1,60;1,45;13,45;15,06;13,23;12,03;-3,22;-2,06;-1,95;13,45;15,06;0,16;0,78;0,19;3,67;652713
IF_IP1_R1_8502005_DIS3_82, SUBCASE 1, Case 1 Time 1.;60;-11,57;-9,32;-4,83;-1,65;-2,31;1,30;2,10;8,24;6,28;3,34;2,48;2,24;13,01;16,23;-11,57;-9,32;-4,83;2,48;-2,31;13,01;16,23;-0,29;0,34;0,06;3,61;652565
IF_IP1_R1_8502005_JAM2M_OUT_-55, SUBCASE 1, Case 1 Time 1.;110;-13,27;-10,08;-6,26;-3,49;-3,00;1,43;2,31;8,76;5,63;4,86;2,45;2,66;13,31;16,15;-13,27;-10,08;-6,26;-3,49;-3,00;13,31;16,15;-1,89;-2,03;0,62;3,59;652543
IF_LD_R4_8502001_DIS1_INSF_82, SUBCASE 1, Case 1 Time 1.;54;-11,60;-9,46;-5,06;-1,17;-1,82;2,09;1,81;12,26;10,22;3,59;1,85;1,76;12,93;16,03;12,26;10,22;-5,06;1,85;-1,82;12,93;16,03;0,37;0,95;-0,07;3,56;652565
IF_IP2_R4_8502005_DIS1_-55, SUBCASE 1, Case 1 Time 1.;44;-9,77;-7,44;-5,24;-2,20;-1,83;1,20;1,90;10,83;9,01;4,22;1,51;1,64;12,74;15,90;10,83;9,01;-5,24;-2,20;-1,83;12,74;15,90;-0,33;-0,39;0,22;3,53;652543
IF_CR_R1_8501009_FS11_-55, SUBCASE 1, Case 1 Time 1.;20;-11,20;-7,66;-4,11;-1,80;-1,62;1,71;2,19;11,28;11,14;3,14;1,16;1,60;12,72;15,43;11,28;11,14;-4,11;-1,80;-1,62;12,72;15,43;0,10;-0,48;0,23;3,43;652543
IF_IP1_R1_8502005_DIS1_82, SUBCASE 1, Case 1 Time 1.;42;-10,34;-8,23;-4,98;-1,71;-2,41;0,77;1,07;5,53;6,45;3,44;2,58;2,37;12,02;15,37;-10,34;-8,23;-4,98;2,58;-2,41;12,02;15,37;-0,50;0,10;0,18;3,42;652565
IF_LD_R4_8502001_FS11_82, SUBCASE 1, Case 1 Time 1.;36;-11,07;-9,89;-4,68;-0,92;-1,39;2,07;1,90;11,93;10,03;3,10;1,26;1,47;12,05;14,62;11,93;10,03;-4,68;1,26;1,47;12,05;14,62;-0,04;0,85;-0,25;3,25;652565
IF_TO_R4_8502005_FS11_82, SUBCASE 1, Case 1 Time 1.;30;-10,86;-9,16;-4,46;-0,85;-1,45;1,83;2,00;11,42;9,14;3,01;1,41;1,42;11,96;14,59;11,42;-9,16;-4,46;1,41;-1,45;11,96;14,59;0,15;0,70;-0,20;3,24;652565
IF_IP2_R4_8502005_FS11_82, SUBCASE 1, Case 1 Time 1.;27;-10,91;-9,17;-4,27;-0,91;-1,47;1,76;2,18;11,25;8,86;2,83;1,47;1,42;12,00;14,56;11,25;-9,17;-4,27;1,47;-1,47;12,00;14,56;0,11;0,60;-0,19;3,24;652565
IF_IP1_R1_8502005_JAM2_23, SUBCASE 1, Case 1 Time 1.;76;-10,29;-9,76;-2,85;-2,89;-2,72;0,42;1,29;11,79;9,77;3,62;2,34;1,83;12,16;14,45;11,79;9,77;3,62;-2,89;-2,72;12,16;14,45;-0,58;0,10;0,37;3,21;652543
IF_LD_R2_8502001_FS11_23, SUBCASE 1, Case 1 Time 1.;31;-10,39;-9,09;-4,41;-1,70;-1,59;0,19;0,61;12,58;10,27;3,62;1,41;1,50;12,80;14,36;12,58;10,27;-4,41;-1,70;-1,59;12,80;14,36;-0,79;0,55;-0,15;3,19;652543
IF_TO_R4_8502005_DIS1_82, SUBCASE 1, Case 1 Time 1.;48;-10,16;-8,23;-4,46;-0,97;-1,56;1,76;1,79;10,44;8,06;3,05;1,55;1,49;11,44;14,18;10,44;-8,23;-4,46;1,55;-1,56;11,44;14,18;0,25;0,67;-0,13;3,15;652565
IF_IP1_R1_8502005_JAM2M_OUT_23, SUBCASE 1, Case 1 Time 1.;109;-12,05;-10,63;-2,73;-2,11;-2,46;0,25;1,04;4,34;2,97;3,30;2,42;1,48;12,28;14,11;-12,05;-10,63;3,30;2,42;-2,46;12,28;14,11;-1,58;-1,46;0,42;3,14;652565
IF_LD_R4_8502001_DIS1_INSF_23, SUBCASE 1, Case 1 Time 1.;52;-7,20;-7,31;-2,49;-1,34;-1,28;0,44;0,57;10,58;10,11;2,25;1,04;1,00;10,70;11,72;10,58;10,11;-2,49;-1,34;-1,28;10,70;11,72;0,19;0,58;0,08;3,10;652713
IF_IP1_R1_8502005_23, SUBCASE 1, Case 1 Time 1.;4;-10,67;-10,09;-2,66;-2,76;-2,61;0,51;1,39;11,38;9,51;3,52;2,31;1,76;11,73;13,91;11,38;-10,09;3,52;-2,76;-2,61;11,73;13,91;-0,63;-0,01;0,34;3,09;652543
IF_LD_R4_8502001_FS11_23, SUBCASE 1, Case 1 Time 1.;34;-8,58;-8,31;-3,16;-1,17;-1,12;0,39;0,47;10,85;9,98;2,61;0,95;0,98;10,96;11,94;10,85;9,98;-3,16;-1,17;-1,12;10,96;11,94;-0,23;0,49;-0,09;3,07;652713
IF_IP2_R4_8502005_DIS1_82, SUBCASE 1, Case 1 Time 1.;45;-9,88;-8,07;-4,16;-0,97;-1,53;1,51;2,03;9,75;7,27;2,78;1,53;1,46;11,13;13,73;-9,88;-8,07;-4,16;1,53;-1,53;11,13;13,73;0,13;0,51;-0,13;3,05;652565
IF_LD_R2_8502001_FS11_82, SUBCASE 1, Case 1 Time 1.;33;-10,00;-10,20;-4,37;-1,33;-1,42;1,49;1,87;10,87;9,62;3,97;1,56;1,75;10,93;12,95;10,87;-10,20;-4,37;1,56;1,75;10,93;12,95;-0,61;0,92;-0,31;2,88;652565
IF_IP2_JAM2M_IN_-55, SUBCASE 1, Case 1 Time 1.;95;-4,13;-7,40;-4,70;-1,57;-1,53;0,24;2,50;8,34;6,50;4,45;1,02;1,57;10,02;12,64;8,34;-7,40;-4,70;-1,57;1,57;10,02;12,64;0,63;0,30;0,34;2,81;652565
IF_TO_JAM2M_IN_-55, SUBCASE 1, Case 1 Time 1.;101;-3,87;-7,36;-4,65;-1,50;-1,49;0,20;2,72;8,29;6,48;4,40;0,97;1,54;9,98;12,59;8,29;-7,36;-4,65;-1,50;1,54;9,98;12,59;0,70;0,33;0,33;2,80;652565
IF_LD_JAM2M_IN_-55, SUBCASE 1, Case 1 Time 1.;107;-3,64;-7,21;-4,57;-1,30;-1,46;1,15;3,52;8,51;6,93;4,03;0,81;1,45;10,04;12,50;8,51;-7,21;-4,57;-1,30;-1,46;10,04;12,50;1,32;0,79;0,34;2,78;652565
IF_IP1_R1_8502005_FS11_82, SUBCASE 1, Case 1 Time 1.;24;-8,33;-6,31;-4,35;-0,95;-1,44;0,73;1,94;8,36;5,60;3,80;1,43;1,25;9,84;12,40;8,36;-6,31;-4,35;1,43;-1,44;9,84;12,40;0,45;0,41;-0,13;2,76;652565
IF_CR_R1_8501009_FS11_23, SUBCASE 1, Case 1 Time 1.;19;-8,98;-8,16;-2,00;-0,96;-0,97;0,32;0,62;9,11;8,96;1,32;0,93;0,76;9,11;9,89;9,11;8,96;-2,00;-0,96;-0,97;9,11;9,89;0,37;0,07;0,03;2,71;652713
IF_TO_R4_8502005_FS11_23, SUBCASE 1, Case 1 Time 1.;28;-7,24;-7,26;-2,10;-0,90;-0,86;0,20;0,17;8,72;8,65;1,97;0,71;0,72;8,78;9,42;8,72;8,65;-2,10;-0,90;-0,86;8,78;9,42;-0,03;0,34;-0,04;2,66;652713
IF_IP1_R1_8502005_FS11_-55, SUBCASE 1, Case 1 Time 1.;23;-6,75;-7,22;-4,01;-1,49;-1,53;0,41;0,48;7,03;6,09;4,04;0,93;1,56;9,26;11,53;7,03;-7,22;4,04;-1,49;1,56;9,26;11,53;0,02;-0,48;0,23;2,56;652528
IF_IP2_R4_8502005_FS11_23, SUBCASE 1, Case 1 Time 1.;25;-7,24;-7,26;-1,70;-0,87;-0,85;0,06;0,22;8,02;8,22;1,92;0,70;0,68;8,22;8,62;8,02;8,22;1,92;-0,87;-0,85;8,22;8,62;-0,07;0,23;-0,03;2,52;652713
IF_IP1_JAM2M_OUT_82, SUBCASE 1, Case 1 Time 1.;93;-8,28;-6,86;-3,07;-0,77;-1,23;0,49;2,43;2,64;5,65;3,52;1,19;1,17;9,11;10,93;-8,28;-6,86;3,52;1,19;-1,23;9,11;10,93;-1,16;-0,77;-0,37;2,43;652565
IF_TO_JAM2M_OUT_-55, SUBCASE 1, Case 1 Time 1.;104;-7,80;-7,68;-4,27;-1,46;-1,83;0,49;0,70;5,89;4,60;5,28;0,88;1,78;8,26;10,48;-7,80;-7,68;5,28;-1,46;-1,83;8,26;10,48;-1,30;-1,42;0,06;2,33;652555
IF_IP2_JAM2M_OUT_-55, SUBCASE 1, Case 1 Time 1.;98;-7,59;-7,59;-4,38;-1,40;-1,79;0,20;0,46;6,08;4,70;5,10;0,83;1,73;8,21;10,45;-7,59;-7,59;5,10;-1,40;-1,79;8,21;10,45;-1,16;-1,30;0,08;2,32;652555
IF_IP1_JAM2M_OUT_-55, SUBCASE 1, Case 1 Time 1.;92;-9,52;-7,88;-4,32;-1,50;-1,93;0,18;0,61;5,74;4,35;5,29;0,91;1,85;9,71;10,43;-9,52;-7,88;5,29;-1,50;-1,93;9,71;10,43;-1,56;-1,64;0,01;2,32;652555
IF_TO_R4_8502005_DIS1_23, SUBCASE 1, Case 1 Time 1.;46;-5,82;-6,01;-1,61;-0,87;-0,83;0,15;0,20;7,47;7,52;1,56;0,67;0,66;7,52;8,13;7,47;7,52;-1,61;-0,87;-0,83;7,52;8,13;0,07;0,31;0,03;2,31;652713
IF_IP2_JAM2M_OUT_82, SUBCASE 1, Case 1 Time 1.;99;-7,12;-5,70;-3,30;-0,70;-1,17;0,11;2,07;2,82;5,56;3,43;1,10;1,11;8,22;10,18;-7,12;-5,70;3,43;1,10;-1,17;8,22;10,18;-0,76;-0,44;-0,29;2,26;652565
IF_TO_JAM2M_OUT_82, SUBCASE 1, Case 1 Time 1.;105;-6,86;-5,52;-3,11;-0,75;-1,18;0,75;2,54;2,76;5,58;3,54;1,16;1,14;7,92;9,79;-6,86;5,58;3,54;1,16;-1,18;7,92;9,79;-0,89;-0,56;-0,31;2,18;652565
IF_IP1_R1_8502005_DIS3_23, SUBCASE 1, Case 1 Time 1.;58;-7,10;-6,80;-1,79;-1,85;-1,75;0,36;0,89;7,56;6,25;2,38;1,51;1,18;7,80;9,27;7,56;-6,80;2,38;-1,85;-1,75;7,80;9,27;-0,48;-0,03;0,22;2,06;652543
IF_IP2_R4_8502005_DIS1_23, SUBCASE 1, Case 1 Time 1.;43;-5,72;-5,87;-1,22;-0,81;-0,78;0,08;0,24;6,38;6,60;1,47;0,63;0,60;6,60;6,94;6,38;6,60;1,47;-0,81;-0,78;6,60;6,94;-0,06;0,14;0,03;2,02;652713
IF_LD_JAM2M_IN_82, SUBCASE 1, Case 1 Time 1.;108;-3,80;-2,90;-4,39;-0,72;-1,28;0,64;0,77;8,35;5,99;3,23;1,13;1,31;8,49;8,65;8,35;5,99;-4,39;1,13;1,31;8,49;8,65;1,69;1,62;-0,01;1,92;652536
IF_TO_JAM2M_IN_82, SUBCASE 1, Case 1 Time 1.;102;-4,32;-3,35;-4,02;-0,66;-1,34;0,40;0,50;6,44;5,87;3,16;1,11;1,40;6,58;7,90;6,44;5,87;-4,02;1,11;1,40;6,58;7,90;1,09;1,17;-0,02;1,75;652555
IF_IP2_JAM2M_IN_82, SUBCASE 1, Case 1 Time 1.;96;-4,34;-3,38;-3,98;-0,68;-1,37;0,22;0,48;6,46;5,88;3,11;1,15;1,45;6,61;7,85;6,46;5,88;-3,98;1,15;1,45;6,61;7,85;1,02;1,14;-0,02;1,74;652555
IF_IP1_R1_8502005_DIS1_23, SUBCASE 1, Case 1 Time 1.;40;-5,92;-5,47;-2,00;-1,88;-1,75;0,01;0,12;5,40;3,87;2,45;1,60;1,19;6,12;7,45;-5,92;-5,47;2,45;-1,88;-1,75;6,12;7,45;-0,68;-0,27;0,33;1,65;652543
IF_LD_JAM2M_IN_23, SUBCASE 1, Case 1 Time 1.;106;-0,13;-0,27;-0,95;-0,40;-0,40;1,43;1,68;4,34;4,11;1,17;0,13;0,16;4,35;4,36;4,34;4,11;1,17;-0,40;-0,40;4,35;4,36;1,51;1,26;0,14;1,30;652713
IF_IP1_JAM2M_OUT_23, SUBCASE 1, Case 1 Time 1.;91;-5,62;-4,98;-0,78;-0,23;-0,34;0,97;1,01;0,21;0,37;0,68;0,45;0,36;5,64;5,42;-5,62;-4,98;-0,78;0,45;0,36;5,64;5,42;-1,30;-1,10;-0,20;1,20;652568
IF_IP1_R1_8502005_FS11_23, SUBCASE 1, Case 1 Time 1.;22;-3,84;-3,29;-0,80;-0,44;-0,47;0,15;0,36;4,12;3,92;0,73;0,45;0,33;4,12;4,30;4,12;3,92;-0,80;0,45;-0,47;4,12;4,30;0,28;0,05;0,03;1,15;652713
IF_IP2_JAM2M_OUT_23, SUBCASE 1, Case 1 Time 1.;97;-3,72;-3,31;-0,54;-0,11;-0,20;0,76;0,76;0,14;0,22;0,46;0,31;0,25;3,74;3,60;-3,72;-3,31;-0,54;0,31;0,25;3,74;3,60;-0,90;-0,77;-0,12;0,80;652568
IF_TO_JAM2M_OUT_23, SUBCASE 1, Case 1 Time 1.;103;-3,70;-3,19;-0,75;-0,17;-0,24;1,02;0,96;0,11;0,20;0,52;0,30;0,25;3,72;3,58;-3,70;-3,19;-0,75;0,30;0,25;3,72;3,58;-1,03;-0,89;-0,14;0,80;652568
IF_IP2_JAM2M_IN_23, SUBCASE 1, Case 1 Time 1.;94;-0,13;-0,14;-0,50;-0,28;-0,23;0,83;0,74;3,61;3,20;0,62;0,18;0,27;3,63;3,48;3,61;3,20;0,62;-0,28;0,27;3,63;3,48;0,84;0,77;0,14;0,77;652568
IF_TO_JAM2M_IN_23, SUBCASE 1, Case 1 Time 1.;100;-0,12;-0,17;-0,51;-0,29;-0,23;0,90;0,80;3,60;3,16;0,67;0,14;0,23;3,61;3,48;3,60;3,16;0,67;-0,29;0,23;3,61;3,48;0,91;0,81;0,13;0,77;652568
Ref CID;Coord Material;;;;;;;;;;;;;;;;;;;;;;;;;;
