LC_Name;LC_ID;qxMin;qyMin;qxyMin;qxzMin;qyzMin;qshearMin;qvonmisesMin;qxMax;qyMax;qxyMax;qxzMax;qyzMax;qshearMax;qvonmisesMax;qxAbsMax;qyAbsMax;qxyAbsMax;qxzAbsMax;qyzAbsMax;qshearAbsMax;qvonmisesAbsMax;qxAverage;qyAverage;qxyAverage;sigmaVonMisesMax;CriticalElemID
IF_CR_R1_8501009_JAM2_-55, SUBCASE 1, Case 1 Time 1.;74;-17,82;-11,45;-6,69;-6,95;-5,43;0,46;2,97;13,30;25,42;17,05;5,02;3,28;31,04;48,17;-17,82;25,42;17,05;-6,95;-5,43;31,04;48,17;-0,62;3,11;6,40;10,71;650244
IF_CR_R1_8501009_-55, SUBCASE 1, Case 1 Time 1.;2;-17,54;-11,78;-6,53;-6,85;-5,34;0,43;2,79;13,03;24,83;16,76;4,94;3,23;30,40;47,26;-17,54;24,83;16,76;-6,85;-5,34;30,40;47,26;-0,66;2,93;6,30;10,50;650244
IF_CR_R1_8501009_JAM2_23, SUBCASE 1, Case 1 Time 1.;73;-14,66;-15,18;-5,42;-5,87;-4,52;1,36;2,94;11,24;22,15;15,38;3,81;3,77;26,56;41,94;-14,66;22,15;15,38;-5,87;-4,52;26,56;41,94;-0,07;1,64;6,18;9,32;650244
IF_CR_R1_8501009_23, SUBCASE 1, Case 1 Time 1.;1;-14,43;-15,47;-5,29;-5,78;-4,44;1,42;2,83;11,01;21,65;15,22;3,75;3,73;26,02;41,16;-14,43;21,65;15,22;-5,78;-4,44;26,02;41,16;-0,08;1,52;5,99;9,15;650244
IF_IP2_R4_8502005_JAM2M_IN_-55, SUBCASE 1, Case 1 Time 1.;113;-14,27;-2,09;-6,14;-5,30;-4,27;0,58;2,08;11,66;22,58;12,94;4,07;2,31;26,60;39,41;-14,27;22,58;12,94;-5,30;-4,27;26,60;39,41;-0,29;4,29;4,29;8,76;650244
IF_CR_R1_8501009_82, SUBCASE 1, Case 1 Time 1.;3;-12,08;-18,42;-4,35;-5,16;-3,76;1,69;3,27;9,79;19,22;16,36;3,58;4,16;22,70;37,87;-12,08;19,22;16,36;-5,16;4,16;22,70;37,87;0,24;0,47;6,11;8,42;650254
IF_CR_R1_8501009_JAM2_82, SUBCASE 1, Case 1 Time 1.;75;-12,29;-18,16;-4,46;-5,18;-3,83;1,57;3,33;9,77;19,65;16,42;3,60;4,20;23,18;37,78;-12,29;19,65;16,42;-5,18;4,20;23,18;37,78;0,26;0,61;6,18;8,39;650254
IF_IP2_R4_8502005_DIS3_-55, SUBCASE 1, Case 1 Time 1.;62;-14,07;-6,18;-5,48;-5,36;-4,26;0,03;1,61;10,69;20,40;12,93;4,06;2,36;24,68;37,64;-14,07;20,40;12,93;-5,36;-4,26;24,68;37,64;-0,53;3,04;4,60;8,36;650244
IF_IP2_R4_8502005_JAM2_-55, SUBCASE 1, Case 1 Time 1.;80;-13,42;-4,74;-5,45;-5,03;-4,00;0,17;1,25;10,58;20,06;12,09;3,85;2,21;24,04;36,11;-13,42;20,06;12,09;-5,03;-4,00;24,04;36,11;-0,50;3,25;4,11;8,03;650244
IF_TO_R4_8502005_JAM2M_IN_INSF_-55, SUBCASE 1, Case 1 Time 1.;119;-13,07;-1,97;-5,79;-4,77;-3,87;0,63;2,25;11,02;21,06;11,53;3,73;2,09;24,66;36,06;-13,07;21,06;11,53;-4,77;-3,87;24,66;36,06;-0,25;4,14;3,62;8,01;650244
IF_IP2_R4_8502005_-55, SUBCASE 1, Case 1 Time 1.;8;-13,02;-5,48;-5,18;-4,90;-3,88;0,05;1,52;10,14;19,06;11,69;3,75;2,16;22,99;34,69;-13,02;19,06;11,69;-4,90;-3,88;22,99;34,69;-0,57;2,90;4,00;7,71;650244
IF_TO_R4_8502005_DIS3_-55, SUBCASE 1, Case 1 Time 1.;65;-12,93;-4,95;-5,13;-4,88;-3,88;0,10;1,22;10,02;18,88;11,65;3,76;2,16;22,75;34,43;-12,93;18,88;11,65;-4,88;-3,88;22,75;34,43;-0,49;2,95;4,01;7,65;650244
IF_CR_R1_8501009_DIS3_-55, SUBCASE 1, Case 1 Time 1.;56;-12,89;-6,45;-4,85;-4,96;-3,90;0,10;1,80;9,60;18,00;11,82;3,77;2,21;22,01;33,93;-12,89;18,00;11,82;-4,96;-3,90;22,01;33,93;-0,56;2,49;4,25;7,54;650244
IF_TO_R4_8502005_JAM2_-55, SUBCASE 1, Case 1 Time 1.;83;-12,62;-3,85;-5,25;-4,67;-3,73;0,21;1,14;10,23;19,14;11,12;3,63;2,07;22,82;33,92;-12,62;19,14;11,12;-4,67;-3,73;22,82;33,92;-0,45;3,21;3,62;7,54;650244
IF_IP2_R4_8502005_JAM2M_IN_23, SUBCASE 1, Case 1 Time 1.;112;-11,12;-5,77;-4,87;-4,22;-3,37;0,08;2,14;9,58;19,17;11,31;2,79;2,56;22,17;33,17;-11,12;19,17;11,31;-4,22;-3,37;22,17;33,17;0,24;2,73;4,13;7,37;650244
IF_IP2_R4_8502005_JAM2M_OUT_-55, SUBCASE 1, Case 1 Time 1.;116;-12,62;-6,45;-4,83;-4,80;-3,78;0,11;1,68;9,56;17,82;11,34;3,67;2,13;21,73;33,15;-12,62;17,82;11,34;-4,80;-3,78;21,73;33,15;-0,64;2,47;3,97;7,37;650244
IF_TO_R4_8502005_-55, SUBCASE 1, Case 1 Time 1.;11;-12,29;-4,50;-5,01;-4,56;-3,62;0,11;1,25;9,84;18,26;10,79;3,55;2,03;21,91;32,70;-12,29;18,26;10,79;-4,56;-3,62;21,91;32,70;-0,51;2,90;3,54;7,27;650244
IF_LD_R4_8502001_-55, SUBCASE 1, Case 1 Time 1.;17;-12,18;-3,76;-5,17;-4,44;-3,54;0,16;1,16;10,16;18,69;10,49;3,48;1,97;22,21;32,67;-12,18;18,69;10,49;-4,44;-3,54;22,21;32,67;-0,44;3,12;3,27;7,26;650244
IF_LD_R4_8502001_JAM2M_INSF_-55, SUBCASE 1, Case 1 Time 1.;128;-11,62;-1,90;-5,57;-4,07;-3,35;0,69;2,46;10,57;19,90;9,69;3,25;1,77;22,95;32,50;-11,62;19,90;9,69;-4,07;-3,35;22,95;32,50;-0,19;4,16;2,64;7,22;650244
IF_LD_R4_8502001_DIS3_-55, SUBCASE 1, Case 1 Time 1.;71;-12,15;-3,84;-4,96;-4,52;-3,61;0,18;1,04;9,71;18,08;10,71;3,54;2,01;21,65;32,36;-12,15;18,08;10,71;-4,52;-3,61;21,65;32,36;-0,43;2,97;3,52;7,19;650244
IF_CR_R1_8501009_DIS1_-55, SUBCASE 1, Case 1 Time 1.;38;-12,37;-6,09;-4,38;-4,90;-3,88;0,08;1,45;8,67;16,46;11,58;3,76;2,21;20,37;32,16;-12,37;16,46;11,58;-4,90;-3,88;20,37;32,16;-0,53;2,25;4,38;7,15;650244
IF_LD_R4_8502001_JAM2_-55, SUBCASE 1, Case 1 Time 1.;89;-11,91;-3,88;-5,00;-4,35;-3,47;0,14;1,16;9,85;18,06;10,25;3,42;1,94;21,53;31,76;-11,91;18,06;10,25;-4,35;-3,47;21,53;31,76;-0,46;2,96;3,21;7,06;650244
IF_LD_R2_8502001_-55, SUBCASE 1, Case 1 Time 1.;14;-11,69;-2,44;-5,08;-4,23;-3,40;0,19;1,24;9,89;18,29;9,98;3,35;1,88;21,59;31,52;-11,69;18,29;9,98;-4,23;-3,40;21,59;31,52;-0,38;3,28;3,02;7,00;650244
IF_IP2_R4_8502005_DIS3_23, SUBCASE 1, Case 1 Time 1.;61;-10,95;-9,96;-4,23;-4,30;-3,35;0,84;2,23;8,64;17,08;11,32;2,78;2,69;20,28;31,52;-10,95;17,08;11,32;-4,30;-3,35;20,28;31,52;0,01;1,56;4,41;7,00;650244
IF_TO_R4_8502005_JAM2M_OUT_-55, SUBCASE 1, Case 1 Time 1.;122;-11,94;-5,43;-4,70;-4,48;-3,54;0,07;1,42;9,32;17,13;10,50;3,48;2,00;20,76;31,31;-11,94;17,13;10,50;-4,48;-3,54;20,76;31,31;-0,58;2,50;3,52;6,96;650244
IF_LD_R2_8502001_JAM2M_INSF_-55, SUBCASE 1, Case 1 Time 1.;125;-10,97;-1,80;-5,30;-3,83;-3,16;0,61;2,46;9,98;18,84;9,06;3,10;1,67;21,68;30,62;-10,97;18,84;9,06;-3,83;-3,16;21,68;30,62;-0,19;4,07;2,42;6,80;650244
IF_IP2_R4_8502005_JAM2_23, SUBCASE 1, Case 1 Time 1.;79;-10,29;-8,55;-4,19;-3,96;-3,10;0,49;2,15;8,52;16,72;10,49;2,56;2,45;19,64;29,95;-10,29;16,72;10,49;-3,96;-3,10;19,64;29,95;0,04;1,76;3,97;6,66;650244
IF_TO_R4_8502005_JAM2M_IN_INSF_23, SUBCASE 1, Case 1 Time 1.;118;-9,93;-4,80;-4,54;-3,70;-2,96;0,02;1,83;8,96;17,70;9,91;2,45;2,14;20,30;29,87;-9,93;17,70;9,91;-3,70;-2,96;20,30;29,87;0,28;2,64;3,51;6,64;650244
IF_LD_R2_8502001_JAM2_-55, SUBCASE 1, Case 1 Time 1.;86;-10,91;-2,74;-4,61;-3,97;-3,17;0,25;1,07;9,02;16,51;9,24;3,18;1,79;19,65;28,90;-10,91;16,51;9,24;-3,97;-3,17;19,65;28,90;-0,46;2,86;2,82;6,42;650244
IF_IP2_R4_8502005_23, SUBCASE 1, Case 1 Time 1.;7;-9,91;-9,26;-3,94;-3,84;-2,98;0,69;1,91;8,09;15,78;10,11;2,47;2,39;18,63;28,61;-9,91;15,78;10,11;-3,84;-2,98;18,63;28,61;-0,03;1,44;3,87;6,36;650244
IF_IP2_R4_8502005_JAM2M_IN_82, SUBCASE 1, Case 1 Time 1.;114;-8,75;-8,77;-3,91;-3,44;-2,68;0,27;2,54;7,98;16,70;10,24;2,51;3,00;18,85;28,52;-8,75;16,70;10,24;-3,44;3,00;18,85;28,52;0,59;1,79;4,10;6,34;650244
IF_TO_R4_8502005_DIS3_23, SUBCASE 1, Case 1 Time 1.;64;-9,80;-8,74;-3,87;-3,81;-2,97;0,75;1,86;7,96;15,52;10,03;2,48;2,31;18,35;28,28;-9,80;15,52;10,03;-3,81;-2,97;18,35;28,28;0,05;1,49;3,91;6,28;650244
IF_CR_R1_8501009_DIS3_23, SUBCASE 1, Case 1 Time 1.;55;-9,76;-10,23;-3,60;-3,90;-3,00;0,92;1,85;7,54;14,64;10,21;2,54;2,46;17,60;27,82;-9,76;14,64;10,21;-3,90;-3,00;17,60;27,82;-0,03;1,03;4,05;6,18;650244
IF_TO_R4_8502005_JAM2_23, SUBCASE 1, Case 1 Time 1.;82;-9,49;-7,68;-3,99;-3,61;-2,82;0,38;1,79;8,17;15,80;9,52;2,34;2,12;18,43;27,75;-9,49;15,80;9,52;-3,61;-2,82;18,43;27,75;0,09;1,74;3,53;6,17;650244
IF_IP2_R4_8502005_DIS3_82, SUBCASE 1, Case 1 Time 1.;63;-8,59;-12,94;-3,28;-3,85;-2,67;0,97;2,58;7,38;14,64;11,86;2,73;3,13;16,98;27,35;-8,59;14,64;11,86;-3,85;3,13;16,98;27,35;0,35;0,57;4,42;6,08;650254
IF_IP2_R4_8502005_JAM2M_OUT_23, SUBCASE 1, Case 1 Time 1.;115;-9,50;-10,27;-3,58;-3,74;-2,88;0,92;1,73;7,49;14,49;9,76;2,41;2,38;17,33;27,04;-9,50;14,49;9,76;-3,74;-2,88;17,33;27,04;-0,09;1,05;3,88;6,01;650244
IF_CR_R1_8501009_DIS3_82, SUBCASE 1, Case 1 Time 1.;57;-7,40;-13,20;-2,77;-3,65;-2,31;1,22;2,35;7,27;12,21;11,28;2,60;2,94;15,07;26,70;-7,40;-13,20;11,28;-3,65;2,94;15,07;26,70;0,31;0,02;4,08;5,93;650254
IF_CR_R1_8501009_DIS1_82, SUBCASE 1, Case 1 Time 1.;39;-6,86;-12,82;-2,71;-3,75;-2,29;1,04;2,40;7,30;10,49;11,41;2,76;3,07;14,75;26,66;7,30;-12,82;11,41;-3,75;3,07;14,75;26,66;0,35;-0,23;4,22;5,92;650254
IF_TO_R4_8502005_23, SUBCASE 1, Case 1 Time 1.;10;-9,18;-8,30;-3,77;-3,51;-2,73;0,60;1,60;7,79;14,97;9,21;2,27;2,08;17,56;26,61;-9,18;14,97;9,21;-3,51;-2,73;17,56;26,61;0,02;1,45;3,45;5,91;650244
IF_LD_R4_8502001_23, SUBCASE 1, Case 1 Time 1.;16;-9,08;-7,59;-3,93;-3,39;-2,65;0,40;1,42;8,12;15,44;8,93;2,20;1,89;17,91;26,61;-9,08;15,44;8,93;-3,39;-2,65;17,91;26,61;0,11;1,67;3,16;5,91;650244
IF_LD_R4_8502001_JAM2M_INSF_23, SUBCASE 1, Case 1 Time 1.;127;-8,53;-3,23;-4,36;-3,02;-2,46;0,17;1,37;8,60;16,73;8,13;1,98;1,57;18,78;26,49;8,60;16,73;8,13;-3,02;-2,46;18,78;26,49;0,37;2,75;2,52;5,89;650244
IF_LD_R4_8502001_DIS3_23, SUBCASE 1, Case 1 Time 1.;70;-9,01;-7,67;-3,70;-3,45;-2,70;0,53;1,58;7,65;14,72;9,10;2,25;2,00;17,26;26,20;-9,01;14,72;9,10;-3,45;-2,70;17,26;26,20;0,11;1,51;3,38;5,82;650244
IF_IP2_R4_8502005_JAM2M_OUT_82, SUBCASE 1, Case 1 Time 1.;117;-7,15;-13,28;-2,83;-3,54;-2,20;1,14;2,32;7,02;12,05;10,94;2,51;2,85;15,02;26,19;-7,15;-13,28;10,94;-3,54;2,85;15,02;26,19;0,24;-0,03;3,82;5,82;650254
IF_CR_R1_8501009_DIS1_23, SUBCASE 1, Case 1 Time 1.;37;-9,23;-9,86;-3,13;-3,84;-2,98;0,85;2,01;6,59;12,96;10,23;2,56;2,58;15,91;26,05;-9,23;12,96;10,23;-3,84;-2,98;15,91;26,05;0,01;0,80;4,18;5,79;650244
IF_IP1_R1_8502005_JAM2_-55, SUBCASE 1, Case 1 Time 1.;77;-10,08;-2,70;-3,80;-3,85;-3,07;0,16;0,98;7,35;13,84;8,95;3,09;1,76;16,90;25,96;-10,08;13,84;8,95;-3,85;-3,07;16,90;25,96;-0,50;2,33;3,12;5,77;650244
IF_LD_R4_8502001_JAM2_23, SUBCASE 1, Case 1 Time 1.;88;-8,81;-7,75;-3,75;-3,31;-2,57;0,48;1,35;7,80;14,78;8,69;2,15;1,85;17,21;25,69;-8,81;14,78;8,69;-3,31;-2,57;17,21;25,69;0,08;1,50;3,11;5,71;650244
IF_LD_R2_8502001_23, SUBCASE 1, Case 1 Time 1.;13;-8,59;-6,28;-3,84;-3,18;-2,51;0,31;1,47;7,85;15,01;8,42;2,08;1,76;17,30;25,45;-8,59;15,01;8,42;-3,18;-2,51;17,30;25,45;0,15;1,82;2,94;5,66;650244
IF_IP2_R4_8502005_JAM2_82, SUBCASE 1, Case 1 Time 1.;81;-7,93;-11,56;-3,24;-3,50;-2,41;0,75;2,41;6,92;14,27;10,70;2,49;2,89;16,33;25,36;-7,93;14,27;10,70;-3,50;2,89;16,33;25,36;0,38;0,75;3,94;5,64;650244
IF_TO_R4_8502005_JAM2M_IN_INSF_82, SUBCASE 1, Case 1 Time 1.;120;-7,56;-7,78;-3,58;-3,02;-2,28;0,33;2,22;7,37;15,27;8,77;2,19;2,58;17,04;25,26;-7,56;15,27;8,77;-3,02;2,58;17,04;25,26;0,64;1,66;3,44;5,61;650244
IF_TO_R4_8502005_JAM2M_OUT_23, SUBCASE 1, Case 1 Time 1.;121;-8,82;-9,27;-3,44;-3,42;-2,64;0,83;1,43;7,26;13,79;8,91;2,20;2,07;16,37;25,19;-8,82;13,79;8,91;-3,42;-2,64;16,37;25,19;-0,03;1,08;3,42;5,60;650244
IF_IP1_R1_8502005_-55, SUBCASE 1, Case 1 Time 1.;5;-9,82;-2,90;-3,65;-3,76;-2,98;0,08;0,86;7,11;13,28;8,68;3,02;1,73;16,29;25,10;-9,82;13,28;8,68;-3,76;-2,98;16,29;25,10;-0,53;2,17;3,02;5,58;650244
IF_IP2_R4_8502005_82, SUBCASE 1, Case 1 Time 1.;9;-7,57;-12,24;-2,99;-3,49;-2,30;1,03;2,35;6,75;13,36;10,71;2,47;2,83;15,36;25,10;-7,57;13,36;10,71;-3,49;2,83;15,36;25,10;0,32;0,43;3,85;5,58;650254
IF_LD_R2_8502001_JAM2M_INSF_23, SUBCASE 1, Case 1 Time 1.;124;-7,84;-2,69;-4,04;-2,77;-2,27;0,13;1,15;7,93;15,52;7,47;1,82;1,47;17,38;24,46;7,93;15,52;7,47;-2,77;-2,27;17,38;24,46;0,35;2,57;2,35;5,44;650244
IF_TO_R4_8502005_DIS3_82, SUBCASE 1, Case 1 Time 1.;66;-7,43;-11,73;-2,92;-3,43;-2,29;0,91;2,25;6,81;13,08;10,44;2,44;2,75;15,05;24,45;-7,43;13,08;10,44;-3,43;2,75;15,05;24,45;0,39;0,46;3,83;5,43;650254
IF_LD_R2_8502001_DIS3_-55, SUBCASE 1, Case 1 Time 1.;68;-9,25;-1,34;-3,94;-3,34;-2,70;0,45;1,54;7,58;13,94;7,62;2,78;1,52;16,54;24,19;-9,25;13,94;7,62;-3,34;-2,70;16,54;24,19;-0,42;2,69;2,24;5,38;650244
IF_TO_R4_8502005_JAM2M_OUT_82, SUBCASE 1, Case 1 Time 1.;123;-6,46;-12,29;-2,67;-3,22;-1,96;0,90;2,08;6,64;11,35;9,82;2,27;2,60;13,97;23,92;6,64;-12,29;9,82;-3,22;2,60;13,97;23,92;0,30;0,00;3,37;5,32;650254
IF_TO_R4_8502005_JAM2_82, SUBCASE 1, Case 1 Time 1.;84;-7,13;-10,70;-3,04;-3,18;-2,14;0,72;2,14;6,57;13,35;9,57;2,25;2,56;15,14;23,16;-7,13;13,35;9,57;-3,18;2,56;15,14;23,16;0,43;0,71;3,46;5,15;650244
IF_TO_R4_8502005_82, SUBCASE 1, Case 1 Time 1.;12;-6,83;-11,29;-2,82;-3,17;-2,05;0,93;2,09;6,38;12,56;9,60;2,23;2,52;14,30;22,86;-6,83;12,56;9,60;-3,17;2,52;14,30;22,86;0,37;0,43;3,39;5,08;650254
IF_LD_R2_8502001_JAM2_23, SUBCASE 1, Case 1 Time 1.;85;-7,80;-6,61;-3,36;-2,92;-2,28;0,35;1,22;6,96;13,18;7,68;1,90;1,64;15,31;22,80;-7,80;13,18;7,68;-2,92;-2,28;15,31;22,80;0,08;1,40;2,76;5,07;650244
IF_LD_R4_8502001_82, SUBCASE 1, Case 1 Time 1.;18;-6,74;-10,61;-2,99;-2,99;-1,97;0,67;1,94;6,55;13,05;8,93;2,08;2,37;14,69;22,09;-6,74;13,05;8,93;-2,99;2,37;14,69;22,09;0,45;0,64;3,12;4,91;650244
IF_LD_R4_8502001_DIS3_82, SUBCASE 1, Case 1 Time 1.;72;-6,65;-10,66;-2,75;-3,10;-2,01;0,75;2,00;6,34;12,28;9,28;2,20;2,47;13,97;22,02;-6,65;12,28;9,28;-3,10;2,47;13,97;22,02;0,45;0,49;3,35;4,89;650254
IF_LD_R4_8502001_JAM2M_INSF_82, SUBCASE 1, Case 1 Time 1.;129;-6,17;-6,23;-3,40;-2,42;-1,77;0,55;1,98;7,01;14,31;6,94;1,73;2,01;15,58;21,88;7,01;14,31;6,94;-2,42;2,01;15,58;21,88;0,71;1,72;2,46;4,86;650244
IF_LD_R2_8502001_FS11_-55, SUBCASE 1, Case 1 Time 1.;32;-8,11;-1,41;-4,12;-2,63;-2,16;1,17;2,37;8,06;13,82;5,82;2,49;1,31;15,75;21,73;-8,11;13,82;5,82;-2,63;-2,16;15,75;21,73;-0,21;3,86;0,93;4,83;650244
IF_LD_R2_8502001_DIS1_INSF_-55, SUBCASE 1, Case 1 Time 1.;50;-8,36;-1,22;-3,59;-2,99;-2,43;0,50;1,40;6,88;12,57;6,69;2,55;1,38;14,88;21,63;-8,36;12,57;6,69;-2,99;-2,43;14,88;21,63;-0,43;2,53;1,87;4,81;650244
IF_LD_R4_8502001_JAM2_82, SUBCASE 1, Case 1 Time 1.;90;-6,48;-10,80;-2,81;-2,97;-1,90;0,73;1,92;6,22;12,38;8,88;2,07;2,36;13,97;21,52;-6,48;12,38;8,88;-2,97;2,36;13,97;21,52;0,42;0,47;3,07;4,78;650254
IF_LD_R2_8502001_82, SUBCASE 1, Case 1 Time 1.;15;-6,25;-9,30;-2,90;-2,78;-1,83;0,45;1,88;6,28;12,63;8,16;1,96;2,21;14,09;20,94;6,28;12,63;8,16;-2,78;2,21;14,09;20,94;0,50;0,81;2,88;4,65;650244
IF_IP1_R1_8502005_JAM2M_OUT_82, SUBCASE 1, Case 1 Time 1.;111;-4,47;-11,16;-2,69;-2,74;-1,26;0,19;1,35;5,84;2,96;7,91;1,98;2,25;12,60;20,41;5,84;-11,16;7,91;-2,74;2,25;12,60;20,41;0,20;-1,48;2,57;4,54;650254
IF_LD_R2_8502001_JAM2M_INSF_82, SUBCASE 1, Case 1 Time 1.;126;-5,47;-5,71;-3,09;-2,28;-1,58;0,54;1,93;6,33;13,09;6,29;1,66;1,91;14,19;19,86;6,33;13,09;6,29;-2,28;1,91;14,19;19,86;0,70;1,58;2,26;4,41;650244
IF_IP1_R1_8502005_JAM2_23, SUBCASE 1, Case 1 Time 1.;76;-6,91;-6,55;-2,52;-2,78;-2,15;0,53;1,48;5,23;10,29;7,32;1,83;1,77;12,40;19,75;-6,91;10,29;7,32;-2,78;-2,15;12,40;19,75;0,02;0,88;3,09;4,39;650244
IF_IP1_R1_8502005_JAM2_82, SUBCASE 1, Case 1 Time 1.;78;-4,51;-9,55;-2,10;-2,76;-1,46;0,57;1,62;5,64;7,81;8,24;2,06;2,23;11,09;19,63;5,64;-9,55;8,24;-2,76;2,23;11,09;19,63;0,36;-0,18;2,94;4,36;650254
IF_IP1_R1_8502005_82, SUBCASE 1, Case 1 Time 1.;6;-4,31;-9,71;-2,16;-2,72;-1,42;0,35;1,60;5,64;7,36;8,14;2,03;2,21;11,23;19,60;5,64;-9,71;8,14;-2,72;2,21;11,23;19,60;0,34;-0,31;2,86;4,36;650254
IF_IP1_R1_8502005_JAM2M_OUT_-55, SUBCASE 1, Case 1 Time 1.;110;-8,21;-4,30;-2,51;-3,30;-2,57;0,15;0,82;5,16;9,08;7,22;2,73;1,59;11,96;19,47;-8,21;9,08;7,22;-3,30;-2,57;11,96;19,47;-0,67;1,03;2,71;4,33;650244
IF_LD_R2_8502001_JAM2_82, SUBCASE 1, Case 1 Time 1.;87;-5,46;-9,65;-2,41;-2,68;-1,60;0,58;1,65;5,64;10,77;7,90;1,90;2,13;12,08;19,25;5,64;10,77;7,90;-2,68;2,13;12,08;19,25;0,42;0,36;2,69;4,28;650254
IF_IP1_R1_8502005_23, SUBCASE 1, Case 1 Time 1.;4;-6,68;-6,73;-2,40;-2,70;-2,08;0,57;1,35;5,02;9,80;7,08;1,78;1,71;11,86;18,99;-6,68;9,80;7,08;-2,70;-2,08;11,86;18,99;0,00;0,74;3,01;4,22;650244
IF_IP1_R1_8502005_DIS3_-55, SUBCASE 1, Case 1 Time 1.;59;-7,65;-0,98;-2,89;-2,87;-2,30;0,45;1,44;5,53;10,17;6,34;2,47;1,36;12,46;18,92;-7,65;10,17;6,34;-2,87;-2,30;12,46;18,92;-0,51;1,97;2,04;4,21;650244
IF_IP1_R1_8502005_DIS1_-55, SUBCASE 1, Case 1 Time 1.;41;-7,45;-0,92;-2,71;-2,84;-2,29;0,39;1,57;5,16;9,59;6,25;2,46;1,36;11,84;18,23;-7,45;9,59;6,25;-2,84;-2,29;11,84;18,23;-0,50;1,89;2,09;4,05;650244
IF_LD_R2_8502001_DIS3_23, SUBCASE 1, Case 1 Time 1.;67;-6,10;-4,66;-2,68;-2,28;-1,80;0,28;1,05;5,49;10,50;6,02;1,49;1,28;12,14;18,00;-6,10;10,50;6,02;-2,28;-1,80;12,14;18,00;0,11;1,23;2,18;4,00;650244
IF_LD_R4_8502001_FS11_-55, SUBCASE 1, Case 1 Time 1.;35;-6,65;-1,09;-3,19;-2,19;-1,79;0,59;1,46;6,27;10,58;4,57;2,10;1,09;12,24;17,01;-6,65;10,58;4,57;-2,19;-1,79;12,24;17,01;-0,38;2,72;0,74;3,78;650244
IF_LD_R4_8502001_DIS1_INSF_-55, SUBCASE 1, Case 1 Time 1.;53;-6,69;-0,99;-2,91;-2,33;-1,91;0,45;1,06;5,57;9,86;4,91;2,12;1,11;11,68;16,72;-6,69;9,86;4,91;-2,33;-1,91;11,68;16,72;-0,48;2,14;1,17;3,71;650244
IF_IP1_R1_8502005_JAM2M_OUT_23, SUBCASE 1, Case 1 Time 1.;109;-5,06;-8,16;-1,59;-2,24;-1,77;0,59;0,88;3,56;5,44;6,70;1,58;1,64;8,90;15,65;-5,06;-8,16;6,70;-2,24;-1,77;8,90;15,65;-0,14;-0,43;2,54;3,48;650254
IF_LD_R2_8502001_FS11_23, SUBCASE 1, Case 1 Time 1.;31;-4,98;-0,99;-2,85;-1,58;-1,26;0,43;1,26;5,74;10,30;4,26;1,20;0,71;11,44;15,54;5,74;10,30;4,26;-1,58;-1,26;11,44;15,54;0,31;2,34;0,85;3,45;650244
IF_LD_R2_8502001_DIS3_82, SUBCASE 1, Case 1 Time 1.;69;-3,72;-7,65;-1,74;-2,21;-1,11;0,31;1,08;4,78;8,06;6,27;1,63;1,76;9,02;15,45;4,78;8,06;6,27;-2,21;1,76;9,02;15,45;0,45;0,20;2,08;3,43;650254
IF_LD_R2_8502001_DIS1_INSF_23, SUBCASE 1, Case 1 Time 1.;49;-5,14;-3,92;-2,30;-1,90;-1,51;0,22;0,85;4,73;9,00;5,03;1,24;1,06;10,36;15,24;-5,14;9,00;5,03;-1,90;-1,51;10,36;15,24;0,10;1,04;1,72;3,39;650244
IF_IP1_R1_8502005_DIS3_82, SUBCASE 1, Case 1 Time 1.;60;-2,99;-7,32;-1,76;-2,02;-0,92;0,12;0,80;4,46;4,18;5,76;1,58;1,65;8,57;14,44;4,46;-7,32;5,76;-2,02;1,65;8,57;14,44;0,36;-0,51;1,89;3,21;650254
IF_IP1_R1_8502005_DIS1_82, SUBCASE 1, Case 1 Time 1.;42;-2,79;-7,10;-1,72;-2,06;-0,97;0,16;0,83;4,45;3,48;5,81;1,65;1,70;8,38;14,36;4,45;-7,10;5,81;-2,06;1,70;8,38;14,36;0,37;-0,60;1,95;3,19;650254
IF_TO_R4_8502005_FS11_-55, SUBCASE 1, Case 1 Time 1.;29;-5,76;-0,88;-2,58;-1,94;-1,59;0,46;1,11;5,02;8,48;3,88;1,88;0,97;9,99;14,06;-5,76;8,48;3,88;-1,94;-1,59;9,99;14,06;-0,49;2,09;0,70;3,13;650244
IF_LD_R2_8502001_DIS1_INSF_82, SUBCASE 1, Case 1 Time 1.;51;-3,08;-6,89;-1,64;-1,94;-0,85;0,21;0,81;4,35;6,52;5,37;1,47;1,56;8,15;13,61;4,35;-6,89;5,37;-1,94;1,56;8,15;13,61;0,45;0,02;1,68;3,02;650254
IF_IP2_R4_8502005_FS11_-55, SUBCASE 1, Case 1 Time 1.;26;-5,62;-0,83;-2,43;-1,92;-1,57;0,52;1,05;4,67;8,01;3,84;1,85;0,95;9,52;13,53;-5,62;8,01;3,84;-1,92;-1,57;9,52;13,53;-0,54;1,94;0,76;3,01;650244
IF_TO_R4_8502005_DIS1_-55, SUBCASE 1, Case 1 Time 1.;47;-5,52;-0,80;-2,35;-1,91;-1,57;0,52;1,02;4,50;7,74;3,78;1,84;0,95;9,23;13,18;-5,52;7,74;3,78;-1,91;-1,57;9,23;13,18;-0,53;1,84;0,79;2,93;650244
IF_CR_R1_8501009_FS11_82, SUBCASE 1, Case 1 Time 1.;21;-4,68;-8,26;-2,34;-1,75;-0,72;0,21;0,42;4,10;0,77;3,94;1,23;1,27;9,23;13,03;-4,68;-8,26;3,94;-1,75;1,27;9,23;13,03;0,23;-1,72;0,61;2,90;650254
IF_IP1_R1_8502005_DIS3_23, SUBCASE 1, Case 1 Time 1.;58;-4,50;-4,34;-1,63;-1,81;-1,39;0,36;0,90;3,42;6,63;4,75;1,20;1,12;8,01;12,79;-4,50;6,63;4,75;-1,81;-1,39;8,01;12,79;0,01;0,53;2,00;2,84;650244
IF_IP2_R4_8502005_DIS1_-55, SUBCASE 1, Case 1 Time 1.;44;-5,35;-0,75;-2,21;-1,87;-1,53;0,56;1,04;4,18;7,27;3,68;1,81;0,93;8,75;12,60;-5,35;7,27;3,68;-1,87;-1,53;8,75;12,60;-0,56;1,76;0,82;2,80;650244
IF_IP1_R1_8502005_DIS1_23, SUBCASE 1, Case 1 Time 1.;40;-4,29;-4,13;-1,44;-1,78;-1,38;0,32;1,00;3,03;5,95;4,65;1,21;1,18;7,34;12,08;-4,29;5,95;4,65;-1,78;-1,38;7,34;12,08;0,03;0,44;2,06;2,69;650244
IF_LD_R4_8502001_DIS1_INSF_82, SUBCASE 1, Case 1 Time 1.;54;-3,05;-6,03;-1,58;-1,51;-0,67;0,12;0,27;3,72;3,92;3,96;1,18;1,23;7,08;11,03;3,72;-6,03;3,96;-1,51;1,23;7,08;11,03;0,40;-0,35;1,01;2,45;650254
IF_LD_R2_8502001_FS11_82, SUBCASE 1, Case 1 Time 1.;33;-2,61;-1,18;-1,89;-0,93;-0,65;0,23;0,93;4,13;7,87;3,10;0,89;0,77;8,29;10,93;4,13;7,87;3,10;-0,93;0,77;8,29;10,93;0,66;1,36;0,81;2,43;650244
IF_LD_R4_8502001_FS11_23, SUBCASE 1, Case 1 Time 1.;34;-3,51;-0,82;-1,92;-1,14;-0,89;0,01;0,36;4,01;7,08;3,01;0,81;0,49;7,90;10,80;4,01;7,08;3,01;-1,14;-0,89;7,90;10,80;0,16;1,28;0,67;2,40;650244
IF_LD_R4_8502001_DIS1_INSF_23, SUBCASE 1, Case 1 Time 1.;52;-3,53;-3,04;-1,64;-1,27;-1,00;0,14;0,44;3,45;6,36;3,33;0,82;0,66;7,27;10,48;-3,53;6,36;3,33;-1,27;-1,00;7,27;10,48;0,06;0,69;1,09;2,33;650244
IF_CR_R1_8501009_FS11_-55, SUBCASE 1, Case 1 Time 1.;20;-4,47;-1,46;-1,57;-1,65;-1,30;0,17;0,51;3,17;5,06;3,01;1,55;0,83;6,52;9,66;-4,47;5,06;3,01;-1,65;-1,30;6,52;9,66;-0,65;0,74;0,72;2,15;650244
IF_TO_R4_8502005_DIS1_82, SUBCASE 1, Case 1 Time 1.;48;-2,92;-5,26;-1,48;-1,29;-0,61;0,05;0,34;3,21;1,76;3,13;1,04;1,03;6,16;9,28;3,21;-5,26;3,13;-1,29;1,03;6,16;9,28;0,35;-0,64;0,65;2,06;650254
IF_IP2_R4_8502005_DIS1_82, SUBCASE 1, Case 1 Time 1.;45;-2,86;-5,19;-1,46;-1,27;-0,65;0,01;0,27;3,11;1,23;3,16;1,06;1,03;6,05;9,21;3,11;-5,19;3,16;-1,27;1,03;6,05;9,21;0,32;-0,72;0,67;2,05;650254
IF_IP2_R4_8502005_FS11_82, SUBCASE 1, Case 1 Time 1.;27;-2,82;-5,11;-1,42;-1,23;-0,61;0,10;0,34;3,06;2,14;3,09;1,00;0,99;5,95;9,02;3,06;-5,11;3,09;-1,23;0,99;5,95;9,02;0,34;-0,53;0,65;2,01;650254
IF_IP1_R1_8502005_FS11_82, SUBCASE 1, Case 1 Time 1.;24;-3,46;-5,62;-1,74;-1,29;-0,55;0,28;0,73;3,17;0,57;2,51;1,01;0,92;6,45;8,99;-3,46;-5,62;2,51;-1,29;0,92;6,45;8,99;0,27;-1,51;0,23;2,00;650254
IF_TO_R4_8502005_FS11_82, SUBCASE 1, Case 1 Time 1.;30;-2,70;-4,80;-1,35;-1,18;-0,53;0,09;0,20;3,01;2,59;2,83;0,94;0,93;5,67;8,49;3,01;-4,80;2,83;-1,18;0,93;5,67;8,49;0,39;-0,39;0,58;1,89;650254
IF_CR_R1_8501009_FS11_23, SUBCASE 1, Case 1 Time 1.;19;-2,53;-5,29;-1,25;-0,89;-0,48;0,05;0,65;1,83;1,62;2,72;0,51;0,67;5,59;8,00;-2,53;-5,29;2,72;-0,89;0,67;5,59;8,00;-0,11;-0,64;0,72;1,78;650254
IF_TO_R4_8502005_FS11_23, SUBCASE 1, Case 1 Time 1.;28;-2,64;-1,80;-1,33;-0,90;-0,69;0,01;0,24;2,81;5,00;2,34;0,59;0,38;5,65;7,91;2,81;5,00;2,34;-0,90;-0,69;5,65;7,91;0,04;0,63;0,62;1,76;650244
IF_IP1_JAM2M_OUT_-55, SUBCASE 1, Case 1 Time 1.;92;-3,61;-0,48;-2,09;-1,28;-0,96;0,11;1,43;2,94;4,14;2,00;1,47;0,74;5,15;7,46;-3,61;4,14;-2,09;1,47;-0,96;5,15;7,46;-0,55;1,45;-0,06;1,66;650254
IF_TO_JAM2M_OUT_-55, SUBCASE 1, Case 1 Time 1.;104;-3,41;-0,48;-1,97;-1,22;-0,92;0,08;1,40;2,92;4,28;1,90;1,42;0,70;5,24;7,44;-3,41;4,28;-1,97;1,42;-0,92;5,24;7,44;-0,54;1,43;-0,02;1,65;650254
IF_IP2_R4_8502005_FS11_23, SUBCASE 1, Case 1 Time 1.;25;-2,50;-2,12;-1,19;-0,88;-0,68;0,02;0,33;2,49;4,53;2,30;0,57;0,46;5,18;7,41;-2,50;4,53;2,30;-0,88;-0,68;5,18;7,41;-0,01;0,46;0,68;1,65;650244
IF_LD_R4_8502001_FS11_82, SUBCASE 1, Case 1 Time 1.;36;-2,02;-3,74;-1,01;-1,07;-0,50;0,17;0,51;2,75;4,65;2,51;0,82;0,83;4,78;7,16;2,75;4,65;2,51;-1,07;0,83;4,78;7,16;0,50;0,22;0,62;1,59;650254
IF_IP2_JAM2M_OUT_-55, SUBCASE 1, Case 1 Time 1.;98;-3,50;-0,47;-1,81;-1,18;-0,94;0,12;1,35;2,81;4,08;1,97;1,43;0,71;4,99;7,03;-3,50;4,08;1,97;1,43;-0,94;4,99;7,03;-0,54;1,43;0,02;1,56;650254
IF_IP1_R1_8502005_FS11_-55, SUBCASE 1, Case 1 Time 1.;23;-3,49;-0,42;-1,24;-1,25;-1,02;0,13;0,79;2,36;3,72;2,13;1,35;0,66;4,82;6,98;-3,49;3,72;2,13;1,35;-1,02;4,82;6,98;-0,61;0,96;0,34;1,55;650244
IF_TO_R4_8502005_DIS1_23, SUBCASE 1, Case 1 Time 1.;46;-2,36;-2,29;-1,09;-0,85;-0,66;0,09;0,33;2,30;4,19;2,20;0,55;0,47;4,81;6,95;-2,36;4,19;2,20;-0,85;-0,66;4,81;6,95;0,00;0,39;0,70;1,54;650244
IF_LD_JAM2M_IN_-55, SUBCASE 1, Case 1 Time 1.;107;-2,93;-0,43;-1,52;-1,02;-0,73;0,35;0,67;2,43;4,05;1,35;1,09;0,36;4,78;6,46;-2,93;4,05;-1,52;1,09;-0,73;4,78;6,46;-0,49;1,34;-0,12;1,44;650254
IF_IP2_JAM2M_IN_-55, SUBCASE 1, Case 1 Time 1.;95;-3,06;-0,48;-1,28;-1,17;-0,96;0,30;0,95;2,86;4,24;1,74;1,24;0,53;4,88;6,45;-3,06;4,24;1,74;1,24;-0,96;4,88;6,45;-0,49;1,51;0,24;1,43;650244
IF_TO_JAM2M_IN_-55, SUBCASE 1, Case 1 Time 1.;101;-2,90;-0,47;-1,23;-1,13;-0,90;0,30;0,89;2,79;4,22;1,57;1,19;0,50;4,86;6,33;-2,90;4,22;1,57;1,19;-0,90;4,86;6,33;-0,49;1,47;0,16;1,41;650254
IF_IP2_R4_8502005_DIS1_23, SUBCASE 1, Case 1 Time 1.;43;-2,18;-2,23;-0,94;-0,81;-0,62;0,08;0,38;1,98;3,69;2,10;0,51;0,50;4,29;6,33;-2,18;3,69;2,10;-0,81;-0,62;4,29;6,33;-0,03;0,31;0,76;1,41;650244
IF_LD_JAM2M_IN_82, SUBCASE 1, Case 1 Time 1.;108;-2,52;-3,27;-2,07;-1,29;-0,67;0,20;1,21;3,22;0,40;1,20;1,09;0,86;4,27;6,33;3,22;-3,27;-2,07;-1,29;0,86;4,27;6,33;0,39;-1,13;-0,25;1,41;650244
IF_IP2_JAM2M_IN_82, SUBCASE 1, Case 1 Time 1.;96;-2,10;-3,08;-1,30;-1,04;-0,52;0,04;1,07;2,49;0,35;1,65;0,97;0,74;3,86;5,67;2,49;-3,08;1,65;-1,04;0,74;3,86;5,67;0,39;-0,97;0,10;1,26;650254
IF_TO_JAM2M_IN_82, SUBCASE 1, Case 1 Time 1.;102;-2,17;-3,10;-1,46;-1,09;-0,54;0,05;1,08;2,64;0,36;1,52;0,94;0,71;3,83;5,53;2,64;-3,10;1,52;-1,09;0,71;3,83;5,53;0,39;-1,01;0,02;1,23;650254
IF_IP2_JAM2M_OUT_82, SUBCASE 1, Case 1 Time 1.;99;-2,14;-3,27;-1,10;-0,84;-0,34;0,22;0,56;2,12;0,36;0,99;0,83;0,64;3,74;4,93;-2,14;-3,27;-1,10;-0,84;0,64;3,74;4,93;0,33;-1,04;-0,07;1,10;650254
IF_IP1_JAM2M_OUT_82, SUBCASE 1, Case 1 Time 1.;93;-2,10;-3,15;-1,07;-0,81;-0,31;0,23;0,46;1,95;0,35;0,81;0,87;0,66;3,58;4,69;-2,10;-3,15;-1,07;0,87;0,66;3,58;4,69;0,32;-1,01;-0,18;1,04;650228
IF_TO_JAM2M_OUT_82, SUBCASE 1, Case 1 Time 1.;105;-2,02;-3,05;-1,08;-0,85;-0,34;0,23;0,57;2,06;0,34;0,90;0,88;0,67;3,49;4,52;2,06;-3,05;-1,08;0,88;0,67;3,49;4,52;0,33;-1,04;-0,12;1,01;650254
IF_IP1_R1_8502005_FS11_23, SUBCASE 1, Case 1 Time 1.;22;-1,31;-2,63;-0,65;-0,44;-0,18;0,02;0,11;0,89;0,21;1,28;0,23;0,32;2,78;3,91;-1,31;-2,63;1,28;-0,44;0,32;2,78;3,91;-0,08;-0,50;0,28;0,87;650254
IF_LD_JAM2M_IN_23, SUBCASE 1, Case 1 Time 1.;106;-0,61;-0,46;-0,79;-0,35;-0,23;0,01;0,11;0,84;0,29;0,18;0,31;0,30;0,94;1,72;0,84;-0,46;-0,79;-0,35;0,30;0,94;1,72;0,04;-0,11;-0,20;0,38;650244
IF_IP1_JAM2M_OUT_23, SUBCASE 1, Case 1 Time 1.;91;-0,56;-0,37;-0,54;-0,30;-0,28;0,02;0,11;0,64;0,26;0,31;0,23;0,21;0,64;1,07;0,64;-0,37;-0,54;-0,30;-0,28;0,64;1,07;-0,02;0,05;-0,04;0,24;650254
IF_IP2_JAM2M_IN_23, SUBCASE 1, Case 1 Time 1.;94;-0,24;-0,08;-0,10;-0,18;-0,15;0,03;0,11;0,27;0,32;0,47;0,23;0,23;0,34;0,86;0,27;0,32;0,47;0,23;0,23;0,34;0,86;0,04;0,05;0,14;0,19;650254
IF_TO_JAM2M_OUT_23, SUBCASE 1, Case 1 Time 1.;103;-0,35;-0,20;-0,41;-0,21;-0,20;0,01;0,10;0,34;0,17;0,22;0,18;0,15;0,35;0,86;-0,35;-0,20;-0,41;-0,21;-0,20;0,35;0,86;-0,02;-0,02;-0,07;0,19;650254
IF_IP2_JAM2M_OUT_23, SUBCASE 1, Case 1 Time 1.;97;-0,40;-0,25;-0,25;-0,18;-0,16;0,00;0,05;0,44;0,21;0,27;0,15;0,12;0,45;0,69;0,44;-0,25;0,27;-0,18;-0,16;0,45;0,69;-0,01;-0,02;-0,03;0,15;650244
IF_TO_JAM2M_IN_23, SUBCASE 1, Case 1 Time 1.;100;-0,30;-0,06;-0,19;-0,15;-0,14;0,01;0,08;0,31;0,26;0,32;0,19;0,19;0,32;0,64;0,31;0,26;0,32;0,19;0,19;0,32;0,64;0,04;0,01;0,07;0,14;650254
Ref CID;Coord Material;;;;;;;;;;;;;;;;;;;;;;;;;;
