LC_Name;LC_ID;qxMin;qyMin;qxyMin;qxzMin;qyzMin;qshearMin;qvonmisesMin;qxMax;qyMax;qxyMax;qxzMax;qyzMax;qshearMax;qvonmisesMax;qxAbsMax;qyAbsMax;qxyAbsMax;qxzAbsMax;qyzAbsMax;qshearAbsMax;qvonmisesAbsMax;qxAverage;qyAverage;qxyAverage;sigmaVonMisesMax;CriticalElemID
IF_CR_R1_8501009_JAM2_82, SUBCASE 1, Case 1 Time 1.;75;-24,77;-26,48;3,57;-6,94;-5,30;3,68;30,35;45,76;109,27;37,79;5,83;1,80;112,53;116,69;45,76;109,27;37,79;-6,94;-5,30;112,53;116,69;4,67;47,33;19,24;25,93;653170
IF_CR_R1_8501009_JAM2_23, SUBCASE 1, Case 1 Time 1.;73;-24,92;-26,27;3,39;-6,92;-5,18;3,79;29,08;45,91;107,43;38,38;5,93;1,82;110,72;115,18;45,91;107,43;38,38;-6,92;-5,18;110,72;115,18;4,76;45,84;19,16;25,59;653170
IF_CR_R1_8501009_82, SUBCASE 1, Case 1 Time 1.;3;-25,06;-26,51;3,43;-7,00;-5,28;3,88;29,57;44,85;106,43;37,08;5,71;1,75;109,61;113,72;44,85;106,43;37,08;-7,00;-5,28;109,61;113,72;4,50;46,16;18,82;25,27;653324
IF_CR_R1_8501009_JAM2_-55, SUBCASE 1, Case 1 Time 1.;74;-25,12;-26,01;3,17;-6,89;-5,02;3,96;27,49;46,10;104,91;39,13;6,08;1,85;108,24;113,09;46,10;104,91;39,13;-6,89;-5,02;108,24;113,09;4,90;44,28;19,26;25,13;653170
IF_CR_R1_8501009_23, SUBCASE 1, Case 1 Time 1.;1;-25,25;-26,31;3,23;-6,98;-5,16;4,01;28,21;44,88;104,23;37,58;5,80;1,77;107,44;111,83;44,88;104,23;37,58;-6,98;-5,16;107,44;111,83;4,51;44,01;18,60;24,85;653324
IF_CR_R1_8501009_-55, SUBCASE 1, Case 1 Time 1.;2;-25,50;-26,05;2,98;-6,96;-4,99;3,76;26,52;44,92;101,22;38,22;5,95;1,78;104,47;109,25;44,92;101,22;38,22;-6,96;-4,99;104,47;109,25;4,68;42,77;18,71;24,28;653324
IF_IP2_R4_8502005_JAM2M_IN_82, SUBCASE 1, Case 1 Time 1.;114;-10,21;-13,93;2,99;-2,92;-3,28;2,63;28,02;37,23;101,64;31,41;4,56;1,64;104,43;107,28;37,23;101,64;31,41;4,56;-3,28;104,43;107,28;4,77;42,36;16,66;23,84;653175
IF_IP2_R4_8502005_JAM2M_IN_23, SUBCASE 1, Case 1 Time 1.;112;-10,29;-13,64;2,99;-2,88;-3,15;2,82;27,30;37,25;99,47;31,51;4,64;1,65;102,27;105,38;37,25;99,47;31,51;4,64;-3,15;102,27;105,38;4,81;40,57;16,48;23,42;653175
IF_IP2_R4_8502005_JAM2M_IN_-55, SUBCASE 1, Case 1 Time 1.;113;-10,40;-13,27;3,01;-2,83;-2,97;3,06;25,47;37,26;96,49;32,02;4,78;1,66;99,33;102,78;37,26;96,49;32,02;4,78;-2,97;99,33;102,78;4,97;38,94;16,55;22,84;653175
IF_TO_R4_8502005_JAM2M_IN_INSF_82, SUBCASE 1, Case 1 Time 1.;120;-8,42;-11,83;2,54;-2,39;-2,88;2,72;25,31;33,45;92,99;28,58;4,03;1,47;95,51;98,01;33,45;92,99;28,58;4,03;-2,88;95,51;98,01;4,38;38,44;15,12;21,78;653175
IF_TO_R4_8502005_JAM2M_IN_INSF_23, SUBCASE 1, Case 1 Time 1.;118;-8,53;-11,55;2,55;-2,36;-2,75;2,88;24,44;33,40;90,60;28,38;4,11;1,47;93,14;95,89;33,40;90,60;28,38;4,11;-2,75;93,14;95,89;4,43;36,82;15,02;21,31;653175
IF_TO_R4_8502005_JAM2M_IN_INSF_-55, SUBCASE 1, Case 1 Time 1.;119;-8,67;-11,20;2,58;-2,32;-2,58;3,08;22,54;33,32;87,34;28,81;4,27;1,48;89,89;92,98;33,32;87,34;28,81;4,27;-2,58;89,89;92,98;4,54;34,82;14,94;20,66;653175
IF_IP2_R4_8502005_DIS3_82, SUBCASE 1, Case 1 Time 1.;63;-16,62;-18,46;3,02;-4,70;-3,89;2,08;24,10;34,73;86,39;28,67;4,34;1,40;88,90;91,87;34,73;86,39;28,67;-4,70;-3,89;88,90;91,87;3,75;37,00;14,87;20,41;653170
IF_IP2_R4_8502005_JAM2_82, SUBCASE 1, Case 1 Time 1.;81;-13,40;-15,85;3,31;-3,85;-3,39;1,57;24,30;32,88;84,93;27,17;4,05;1,35;87,32;89,98;32,88;84,93;27,17;4,05;-3,39;87,32;89,98;3,71;35,99;14,39;20,00;653170
IF_IP2_R4_8502005_DIS3_23, SUBCASE 1, Case 1 Time 1.;61;-16,79;-18,22;2,81;-4,67;-3,76;2,26;22,65;34,70;84,09;29,05;4,41;1,40;86,61;89,86;34,70;84,09;29,05;-4,67;-3,76;86,61;89,86;3,80;35,25;14,70;19,97;653170
IF_LD_R4_8502001_JAM2M_INSF_82, SUBCASE 1, Case 1 Time 1.;129;-5,22;-8,57;1,92;-1,48;-2,28;2,33;22,64;29,09;84,74;25,67;3,41;1,28;86,96;89,02;29,09;84,74;25,67;3,41;-2,28;86,96;89,02;4,01;34,36;13,54;19,78;653175
IF_IP2_R4_8502005_JAM2_23, SUBCASE 1, Case 1 Time 1.;79;-13,46;-15,56;3,12;-3,81;-3,26;1,76;22,86;32,87;82,74;27,57;4,13;1,36;85,15;88,08;32,87;82,74;27,57;4,13;-3,26;85,15;88,08;3,78;34,39;14,28;19,57;653170
IF_IP2_R4_8502005_DIS3_-55, SUBCASE 1, Case 1 Time 1.;62;-17,02;-17,91;2,56;-4,64;-3,59;2,50;20,84;34,68;80,96;29,53;4,63;1,42;83,50;87,12;34,68;80,96;29,53;-4,64;-3,59;83,50;87,12;3,92;33,49;14,72;19,36;653170
IF_LD_R4_8502001_JAM2M_INSF_23, SUBCASE 1, Case 1 Time 1.;127;-5,33;-8,29;1,94;-1,45;-2,14;2,33;21,56;29,01;82,29;25,42;3,48;1,29;84,53;86,83;29,01;82,29;25,42;3,48;-2,14;84,53;86,83;4,08;32,79;13,45;19,30;653175
IF_IP2_R4_8502005_JAM2_-55, SUBCASE 1, Case 1 Time 1.;80;-13,57;-15,19;2,88;-3,76;-3,08;2,02;21,06;32,87;79,75;28,07;4,32;1,36;82,19;85,48;32,87;79,75;28,07;4,32;-3,08;82,19;85,48;3,90;32,56;14,27;19,00;653170
IF_IP2_R4_8502005_82, SUBCASE 1, Case 1 Time 1.;9;-14,25;-16,21;3,01;-4,08;-3,38;1,84;22,65;31,16;78,99;25,65;3,84;1,24;81,24;83,81;31,16;78,99;25,65;-4,08;-3,38;81,24;83,81;3,34;33,67;13,54;18,62;653324
IF_TO_R4_8502005_JAM2_82, SUBCASE 1, Case 1 Time 1.;84;-12,10;-14,33;3,10;-3,47;-3,12;1,44;22,57;30,30;79,16;25,07;3,70;1,24;81,37;83,79;30,30;79,16;25,07;3,70;-3,12;81,37;83,79;3,46;33,37;13,35;18,62;653170
IF_TO_R4_8502005_DIS3_82, SUBCASE 1, Case 1 Time 1.;66;-14,49;-16,20;2,78;-4,10;-3,46;1,77;21,92;31,16;78,49;25,73;3,86;1,25;80,74;83,35;31,16;78,49;25,73;-4,10;-3,46;80,74;83,35;3,40;33,48;13,43;18,52;653170
IF_LD_R2_8502001_JAM2M_INSF_82, SUBCASE 1, Case 1 Time 1.;126;-4,40;-7,63;1,66;-1,24;-2,08;1,97;21,00;26,93;79,19;23,92;3,14;1,19;81,25;83,14;26,93;79,19;23,92;3,14;-2,08;81,25;83,14;3,76;32,04;12,58;18,47;653175
IF_LD_R4_8502001_JAM2M_INSF_-55, SUBCASE 1, Case 1 Time 1.;128;-5,61;-8,00;1,96;-1,44;-1,98;2,47;18,83;28,70;78,00;25,10;3,58;1,28;80,23;82,87;28,70;78,00;25,10;3,58;-1,98;80,23;82,87;4,13;30,35;13,21;18,42;653175
IF_TO_R4_8502005_JAM2_23, SUBCASE 1, Case 1 Time 1.;82;-12,17;-14,04;2,90;-3,42;-2,99;1,64;21,12;30,29;76,94;25,46;3,78;1,25;79,17;81,85;30,29;76,94;25,46;3,78;-2,99;79,17;81,85;3,54;31,95;13,32;18,19;653170
IF_IP2_R4_8502005_23, SUBCASE 1, Case 1 Time 1.;7;-14,39;-15,94;2,81;-4,05;-3,25;1,99;21,19;31,09;76,60;25,99;3,92;1,25;78,86;81,69;31,09;76,60;25,99;-4,05;-3,25;78,86;81,69;3,40;32,01;13,41;18,15;653324
IF_TO_R4_8502005_DIS3_23, SUBCASE 1, Case 1 Time 1.;64;-14,66;-15,96;2,58;-4,07;-3,34;1,95;20,47;31,15;76,22;26,12;3,93;1,26;78,49;81,38;31,15;76,22;26,12;-4,07;-3,34;78,49;81,38;3,49;32,07;13,39;18,08;653170
IF_LD_R2_8502001_JAM2M_INSF_23, SUBCASE 1, Case 1 Time 1.;124;-4,47;-7,31;1,67;-1,19;-1,95;1,99;19,77;26,85;76,77;23,67;3,21;1,19;78,84;80,97;26,85;76,77;23,67;3,21;-1,95;78,84;80,97;3,82;30,46;12,49;17,99;653175
IF_CR_R1_8501009_DIS3_82, SUBCASE 1, Case 1 Time 1.;57;-16,16;-17,50;2,56;-4,54;-3,59;2,38;21,13;30,61;74,63;25,10;3,83;1,19;76,81;79,46;30,61;74,63;25,10;-4,54;-3,59;76,81;79,46;3,11;32,30;12,99;17,66;653170
IF_LD_R4_8502001_82, SUBCASE 1, Case 1 Time 1.;18;-11,85;-13,79;2,92;-3,39;-3,00;1,40;21,31;28,68;74,98;23,72;3,49;1,16;77,07;79,35;28,68;74,98;23,72;3,49;-3,00;77,07;79,35;3,23;31,53;12,68;17,63;653324
IF_TO_R4_8502005_JAM2_-55, SUBCASE 1, Case 1 Time 1.;83;-12,26;-13,66;2,65;-3,37;-2,81;1,91;19,32;30,27;73,92;25,95;3,97;1,26;76,18;79,21;30,27;73,92;25,95;3,97;-2,81;76,18;79,21;3,64;29,91;13,23;17,60;653170
IF_IP2_R4_8502005_-55, SUBCASE 1, Case 1 Time 1.;8;-14,59;-15,60;2,55;-4,00;-3,07;2,21;19,38;31,01;73,33;26,42;4,11;1,25;75,62;78,81;31,01;73,33;26,42;4,11;-3,07;75,62;78,81;3,51;30,06;13,36;17,51;653324
IF_TO_R4_8502005_DIS3_-55, SUBCASE 1, Case 1 Time 1.;65;-14,89;-15,66;2,32;-4,04;-3,17;2,21;18,68;31,13;73,13;26,61;4,17;1,27;75,43;78,69;31,13;73,13;26,61;4,17;-3,17;75,43;78,69;3,58;30,00;13,29;17,49;653170
IF_LD_R4_8502001_DIS3_82, SUBCASE 1, Case 1 Time 1.;72;-12,56;-14,30;2,70;-3,55;-3,13;1,51;20,74;28,85;74,04;23,86;3,54;1,17;76,13;78,49;28,85;74,04;23,86;-3,55;-3,13;76,13;78,49;3,24;31,41;12,55;17,44;653170
IF_TO_R4_8502005_82, SUBCASE 1, Case 1 Time 1.;12;-12,87;-14,69;2,83;-3,68;-3,12;1,58;21,13;28,82;73,96;23,76;3,53;1,15;76,05;78,38;28,82;73,96;23,76;-3,68;-3,12;76,05;78,38;3,14;31,36;12,62;17,42;653324
IF_LD_R2_8502001_82, SUBCASE 1, Case 1 Time 1.;15;-9,88;-12,09;2,98;-2,82;-2,73;1,35;21,17;27,58;74,13;22,99;3,33;1,14;76,16;78,28;27,58;74,13;22,99;3,33;-2,73;76,16;78,28;3,27;30,93;12,35;17,40;653324
IF_CR_R1_8501009_DIS1_82, SUBCASE 1, Case 1 Time 1.;39;-15,94;-17,19;2,33;-4,44;-3,59;2,14;20,32;30,13;73,06;24,83;3,78;1,19;75,21;77,88;30,13;73,06;24,83;-4,44;-3,59;75,21;77,88;3,12;31,73;12,67;17,31;653170
IF_LD_R2_8502001_JAM2M_INSF_-55, SUBCASE 1, Case 1 Time 1.;125;-4,61;-6,92;1,70;-1,15;-1,82;2,12;17,13;26,68;73,24;23,43;3,33;1,19;75,33;77,78;26,68;73,24;23,43;3,33;-1,82;75,33;77,78;3,91;28,28;12,36;17,28;653175
IF_CR_R1_8501009_DIS3_23, SUBCASE 1, Case 1 Time 1.;55;-16,35;-17,28;2,36;-4,52;-3,46;2,51;19,74;30,61;72,41;25,58;3,91;1,21;74,61;77,54;30,61;72,41;25,58;-4,52;-3,46;74,61;77,54;3,17;30,60;12,84;17,23;653170
IF_LD_R4_8502001_23, SUBCASE 1, Case 1 Time 1.;16;-11,91;-13,48;2,71;-3,34;-2,86;1,60;19,80;28,56;72,48;24,03;3,55;1,16;74,58;77,12;28,56;72,48;24,03;3,55;-2,86;74,58;77,12;3,30;29,96;12,58;17,14;653324
IF_IP2_R4_8502005_JAM2M_OUT_82, SUBCASE 1, Case 1 Time 1.;117;-15,78;-16,97;2,60;-4,44;-3,44;2,49;20,70;29,35;72,03;24,04;3,65;1,13;74,12;76,62;29,35;72,03;24,04;-4,44;-3,44;74,12;76,62;2,92;31,05;12,59;17,03;653175
IF_LD_R4_8502001_DIS3_23, SUBCASE 1, Case 1 Time 1.;70;-12,67;-14,05;2,49;-3,52;-3,00;1,72;19,28;28,83;71,76;24,24;3,62;1,18;73,88;76,50;28,83;71,76;24,24;3,62;-3,00;73,88;76,50;3,30;29,81;12,45;17,00;653170
IF_TO_R4_8502005_23, SUBCASE 1, Case 1 Time 1.;10;-13,01;-14,42;2,63;-3,65;-2,98;1,75;19,67;28,75;71,56;24,10;3,60;1,16;73,66;76,26;28,75;71,56;24,10;-3,65;-2,98;73,66;76,26;3,21;29,87;12,55;16,95;653324
IF_LD_R2_8502001_23, SUBCASE 1, Case 1 Time 1.;13;-9,94;-11,78;2,79;-2,78;-2,59;1,55;19,62;27,45;71,58;23,19;3,39;1,14;73,62;75,99;27,45;71,58;23,19;3,39;-2,59;73,62;75,99;3,33;29,35;12,25;16,89;653324
IF_CR_R1_8501009_DIS1_23, SUBCASE 1, Case 1 Time 1.;37;-16,14;-16,98;2,13;-4,42;-3,46;2,29;18,91;30,13;70,83;25,29;3,88;1,20;73,00;75,95;30,13;70,83;25,29;-4,42;-3,46;73,00;75,95;3,18;30,05;12,53;16,88;653170
IF_LD_R4_8502001_JAM2_82, SUBCASE 1, Case 1 Time 1.;90;-12,10;-13,82;2,74;-3,45;-2,97;1,44;20,36;27,65;71,59;22,82;3,37;1,11;73,59;75,81;27,65;71,59;22,82;-3,45;-2,97;73,59;75,81;3,05;30,22;12,17;16,85;653170
IF_CR_R1_8501009_DIS3_-55, SUBCASE 1, Case 1 Time 1.;56;-16,60;-17,00;2,11;-4,49;-3,30;2,60;18,04;30,62;69,38;26,20;4,15;1,22;71,62;74,93;30,62;69,38;26,20;-4,49;-3,30;71,62;74,93;3,29;28,85;12,87;16,65;653170
IF_IP2_R4_8502005_JAM2M_OUT_23, SUBCASE 1, Case 1 Time 1.;115;-15,88;-16,69;2,40;-4,40;-3,31;2,57;19,34;29,33;69,81;24,48;3,72;1,14;71,92;74,69;29,33;69,81;24,48;-4,40;-3,31;71,92;74,69;3,02;29,75;12,59;16,60;653175
IF_LD_R4_8502001_-55, SUBCASE 1, Case 1 Time 1.;17;-12,06;-13,09;2,45;-3,29;-2,68;1,86;17,93;28,41;69,08;24,40;3,72;1,17;71,19;74,08;28,41;69,08;24,40;3,72;-2,68;71,19;74,08;3,38;27,80;12,45;16,46;653324
IF_LD_R4_8502001_DIS3_-55, SUBCASE 1, Case 1 Time 1.;71;-12,87;-13,72;2,24;-3,48;-2,83;1,98;17,46;28,81;68,67;24,73;3,85;1,19;70,81;73,80;28,81;68,67;24,73;3,85;-2,83;70,81;73,80;3,41;27,90;12,41;16,40;653170
IF_LD_R4_8502001_JAM2_23, SUBCASE 1, Case 1 Time 1.;88;-12,17;-13,48;2,54;-3,40;-2,83;1,61;18,88;27,54;69,16;23,14;3,43;1,11;71,18;73,65;27,54;69,16;23,14;3,43;-2,83;71,18;73,65;3,11;28,63;12,07;16,37;653170
IF_TO_R4_8502005_-55, SUBCASE 1, Case 1 Time 1.;11;-13,20;-14,06;2,37;-3,60;-2,80;1,98;17,85;28,66;68,29;24,52;3,80;1,16;70,41;73,36;28,66;68,29;24,52;3,80;-2,80;70,41;73,36;3,29;27,73;12,43;16,30;653324
IF_CR_R1_8501009_DIS1_-55, SUBCASE 1, Case 1 Time 1.;38;-16,39;-16,71;1,88;-4,40;-3,30;2,52;17,19;30,14;67,79;25,91;4,11;1,22;69,99;73,33;30,14;67,79;25,91;-4,40;-3,30;69,99;73,33;3,29;28,27;12,55;16,29;653170
IF_LD_R2_8502001_-55, SUBCASE 1, Case 1 Time 1.;14;-10,01;-11,37;2,52;-2,72;-2,40;1,81;17,68;27,27;68,12;23,54;3,54;1,14;70,18;72,89;27,27;68,12;23,54;3,54;-2,40;70,18;72,89;3,41;27,15;12,10;16,20;653324
IF_IP2_R4_8502005_JAM2M_OUT_-55, SUBCASE 1, Case 1 Time 1.;116;-16,01;-16,32;2,16;-4,34;-3,13;2,37;17,68;29,30;66,80;25,06;3,94;1,15;68,93;72,07;29,30;66,80;25,06;-4,34;-3,13;68,93;72,07;3,10;27,60;12,46;16,02;653175
IF_TO_R4_8502005_JAM2M_OUT_82, SUBCASE 1, Case 1 Time 1.;123;-14,30;-15,43;2,46;-4,02;-3,18;2,11;19,39;27,23;67,65;22,31;3,36;1,05;69,59;71,87;27,23;67,65;22,31;-4,02;-3,18;69,59;71,87;2,74;29,03;11,76;15,97;653175
IF_LD_R4_8502001_JAM2_-55, SUBCASE 1, Case 1 Time 1.;89;-12,25;-13,05;2,29;-3,33;-2,64;1,86;17,06;27,40;65,86;23,52;3,61;1,11;67,89;70,71;27,40;65,86;23,52;3,61;-2,64;67,89;70,71;3,21;26,54;11,96;15,71;653170
IF_TO_R4_8502005_JAM2M_OUT_23, SUBCASE 1, Case 1 Time 1.;121;-14,40;-15,14;2,27;-3,98;-3,04;2,21;18,02;27,21;65,43;22,70;3,43;1,06;67,39;69,94;27,21;65,43;22,70;-3,98;-3,04;67,39;69,94;2,85;27,70;11,75;15,54;653175
IF_LD_R2_8502001_JAM2_82, SUBCASE 1, Case 1 Time 1.;87;-10,26;-11,94;2,53;-2,94;-2,60;1,19;18,43;24,47;64,30;20,17;2,95;0,98;66,08;67,99;24,47;64,30;20,17;2,95;-2,60;66,08;67,99;2,72;27,08;10,85;15,11;653170
IF_TO_R4_8502005_JAM2M_OUT_-55, SUBCASE 1, Case 1 Time 1.;122;-14,53;-14,76;2,02;-3,92;-2,86;2,28;16,36;27,18;62,41;23,28;3,65;1,07;64,40;67,31;27,18;62,41;23,28;-3,92;-2,86;64,40;67,31;2,93;25,56;11,63;14,96;653175
IF_LD_R2_8502001_JAM2_23, SUBCASE 1, Case 1 Time 1.;85;-10,33;-11,61;2,33;-2,89;-2,46;1,37;16,96;24,37;61,90;20,50;3,02;0,99;63,69;65,85;24,37;61,90;20,50;3,02;-2,46;63,69;65,85;2,80;25,63;10,80;14,63;653170
IF_LD_R2_8502001_JAM2_-55, SUBCASE 1, Case 1 Time 1.;86;-10,43;-11,19;2,07;-2,82;-2,27;1,63;15,14;24,24;58,63;20,89;3,21;0,99;60,45;62,96;24,24;58,63;20,89;3,21;-2,27;60,45;62,96;2,89;23,42;10,65;13,99;653170
IF_IP1_R1_8502005_JAM2_82, SUBCASE 1, Case 1 Time 1.;78;-10,48;-11,87;1,99;-2,98;-2,54;1,32;15,94;22,05;55,55;18,02;2,71;0,87;57,13;58,92;22,05;55,55;18,02;-2,98;-2,54;57,13;58,92;2,33;24,03;9,43;13,09;653170
IF_LD_R2_8502001_FS11_82, SUBCASE 1, Case 1 Time 1.;33;-0,64;-0,07;1,10;-0,45;-1,09;0,52;10,44;17,04;56,27;15,63;1,65;0,73;57,57;58,09;17,04;56,27;15,63;1,65;-1,09;57,57;58,09;2,50;21,75;8,35;12,91;653170
IF_IP1_R1_8502005_JAM2_23, SUBCASE 1, Case 1 Time 1.;76;-10,66;-11,65;1,80;-2,95;-2,42;1,47;14,56;22,13;53,58;18,50;2,85;0,89;55,19;57,26;22,13;53,58;18,50;-2,95;-2,42;55,19;57,26;2,46;22,98;9,55;12,72;653170
IF_IP1_R1_8502005_82, SUBCASE 1, Case 1 Time 1.;6;-10,64;-11,84;1,89;-3,02;-2,50;1,46;15,25;21,18;52,83;17,25;2,61;0,83;54,34;56,06;21,18;52,83;17,25;-3,02;-2,50;54,34;56,06;2,17;22,96;9,02;12,46;653324
IF_LD_R2_8502001_FS11_23, SUBCASE 1, Case 1 Time 1.;31;-0,66;0,24;1,11;-0,55;-1,13;0,95;8,01;16,89;53,96;15,41;1,82;0,73;55,26;56,00;16,89;53,96;15,41;1,82;-1,13;55,26;56,00;2,56;20,10;8,23;12,44;653170
IF_LD_R2_8502001_DIS3_82, SUBCASE 1, Case 1 Time 1.;69;-7,19;-8,79;2,13;-2,05;-2,02;0,90;15,13;19,58;53,08;16,35;2,32;0,80;54,52;55,97;19,58;53,08;16,35;2,32;-2,02;54,52;55,97;2,28;22,27;8,76;12,44;653170
IF_IP1_R1_8502005_JAM2_-55, SUBCASE 1, Case 1 Time 1.;77;-10,89;-11,35;1,56;-2,92;-2,25;1,70;12,90;22,24;50,90;19,13;3,10;0,91;52,55;55,01;22,24;50,90;19,13;3,10;-2,25;52,55;55,01;2,55;20,80;9,41;12,22;653170
IF_IP1_R1_8502005_23, SUBCASE 1, Case 1 Time 1.;4;-10,83;-11,61;1,69;-2,99;-2,37;1,60;13,82;21,17;50,59;17,66;2,73;0,84;52,12;54,12;21,17;50,59;17,66;-2,99;-2,37;52,12;54,12;2,28;21,81;9,11;12,03;653324
IF_LD_R2_8502001_DIS3_23, SUBCASE 1, Case 1 Time 1.;67;-7,31;-8,54;1,92;-2,03;-1,89;1,11;13,82;19,55;50,79;16,53;2,40;0,80;52,24;53,95;19,55;50,79;16,53;2,40;-1,89;52,24;53,95;2,37;20,94;8,77;11,99;653170
IF_LD_R2_8502001_FS11_-55, SUBCASE 1, Case 1 Time 1.;32;-0,68;0,66;1,14;-0,68;-1,17;1,53;5,27;16,68;50,82;15,10;2,06;0,73;52,14;53,16;16,68;50,82;15,10;2,06;-1,17;52,14;53,16;2,67;18,18;8,19;11,81;653170
IF_IP1_R1_8502005_-55, SUBCASE 1, Case 1 Time 1.;5;-11,08;-11,32;1,43;-2,97;-2,21;1,68;12,10;21,16;47,54;18,27;2,97;0,85;49,10;51,48;21,16;47,54;18,27;2,97;-2,21;49,10;51,48;2,35;19,48;8,90;11,44;653324
IF_LD_R2_8502001_DIS3_-55, SUBCASE 1, Case 1 Time 1.;68;-7,50;-8,21;1,67;-1,99;-1,72;1,26;12,00;19,51;47,66;17,00;2,63;0,81;49,14;51,21;19,51;47,66;17,00;2,63;-1,72;49,14;51,21;2,45;18,73;8,62;11,38;653170
IF_LD_R2_8502001_DIS1_INSF_82, SUBCASE 1, Case 1 Time 1.;51;-5,75;-7,22;1,81;-1,66;-1,69;0,71;12,97;16,45;45,47;13,88;1,92;0,66;46,68;47,84;16,45;45,47;13,88;1,92;-1,69;46,68;47,84;1,93;19,05;7,44;10,63;653170
IF_LD_R2_8502001_DIS1_INSF_23, SUBCASE 1, Case 1 Time 1.;49;-5,91;-7,01;1,67;-1,64;-1,57;0,93;11,84;16,52;43,39;13,99;2,01;0,67;44,63;46,06;16,52;43,39;13,99;2,01;-1,57;44,63;46,06;2,00;17,52;7,36;10,23;653170
IF_LD_R2_8502001_DIS1_INSF_-55, SUBCASE 1, Case 1 Time 1.;50;-6,23;-6,79;1,43;-1,63;-1,42;0,99;10,19;16,69;40,79;14,64;2,26;0,69;42,07;43,88;16,69;40,79;14,64;2,26;-1,42;42,07;43,88;2,13;15,81;7,42;9,75;653170
IF_IP1_R1_8502005_DIS3_82, SUBCASE 1, Case 1 Time 1.;60;-6,72;-7,77;1,42;-1,94;-1,69;0,84;10,73;14,31;37,00;11,53;1,72;0,56;38,02;39,08;14,31;37,00;11,53;-1,94;-1,69;38,02;39,08;1,47;16,14;6,17;8,68;653170
IF_IP1_R1_8502005_DIS1_82, SUBCASE 1, Case 1 Time 1.;42;-6,61;-7,63;1,31;-1,89;-1,69;0,74;10,31;14,05;36,24;11,37;1,70;0,56;37,24;38,30;14,05;36,24;11,37;-1,89;-1,69;37,24;38,30;1,47;15,85;6,01;8,51;653170
IF_LD_R4_8502001_FS11_82, SUBCASE 1, Case 1 Time 1.;36;-0,57;-1,97;1,15;-0,27;-0,67;0,40;9,05;11,32;36,64;10,32;1,10;0,46;37,49;37,92;11,32;36,64;10,32;1,10;-0,67;37,49;37,92;1,49;14,62;5,57;8,43;653170
IF_IP1_R1_8502005_DIS3_23, SUBCASE 1, Case 1 Time 1.;58;-6,92;-7,54;1,21;-1,92;-1,57;0,98;9,54;14,29;34,73;11,92;1,85;0,57;35,77;37,09;14,29;34,73;11,92;-1,92;-1,57;35,77;37,09;1,57;14,88;6,21;8,24;653170
IF_IP1_R1_8502005_DIS1_23, SUBCASE 1, Case 1 Time 1.;40;-6,81;-7,40;1,12;-1,87;-1,57;0,91;9,17;14,04;33,99;11,77;1,83;0,57;35,01;36,34;14,04;33,99;11,77;-1,87;-1,57;35,01;36,34;1,57;14,60;6,06;8,07;653170
IF_LD_R4_8502001_FS11_23, SUBCASE 1, Case 1 Time 1.;34;-0,31;-1,66;1,16;-0,37;-0,65;0,33;6,45;11,17;34,33;10,10;1,25;0,47;35,20;35,84;11,17;34,33;10,10;1,25;-0,65;35,20;35,84;1,58;13,21;5,54;7,96;653170
IF_IP1_R1_8502005_JAM2M_OUT_82, SUBCASE 1, Case 1 Time 1.;111;-12,46;-12,16;0,96;-3,44;-2,36;0,87;10,02;15,38;33,29;12,64;1,96;0,55;34,31;35,68;15,38;33,29;12,64;-3,44;-2,36;34,31;35,68;1,06;15,59;6,13;7,93;653175
IF_IP1_R1_8502005_DIS3_-55, SUBCASE 1, Case 1 Time 1.;59;-7,17;-7,24;0,95;-1,89;-1,40;0,95;7,85;14,27;31,65;12,49;2,09;0,58;32,72;34,43;14,27;31,65;12,49;2,09;-1,40;32,72;34,43;1,64;12,63;6,04;7,65;653170
IF_IP1_R1_8502005_JAM2M_OUT_23, SUBCASE 1, Case 1 Time 1.;109;-12,62;-11,93;0,77;-3,41;-2,23;0,84;8,60;15,41;31,24;13,15;2,12;0,56;32,29;33,96;15,41;31,24;13,15;-3,41;-2,23;32,29;33,96;1,13;13,98;6,02;7,55;653175
IF_IP1_R1_8502005_DIS1_-55, SUBCASE 1, Case 1 Time 1.;41;-7,08;-7,11;0,86;-1,85;-1,40;0,95;7,48;14,03;30,93;12,33;2,07;0,58;31,98;33,70;14,03;30,93;12,33;2,07;-1,40;31,98;33,70;1,64;12,35;5,89;7,49;653170
IF_LD_R4_8502001_DIS1_INSF_82, SUBCASE 1, Case 1 Time 1.;54;-3,89;-5,01;1,41;-1,17;-1,16;0,34;9,23;11,06;31,57;9,44;1,25;0,43;32,38;33,07;11,06;31,57;9,44;1,25;-1,16;32,38;33,07;1,23;13,29;5,10;7,35;653170
IF_LD_R4_8502001_FS11_-55, SUBCASE 1, Case 1 Time 1.;35;-0,33;-1,26;1,19;-0,50;-0,71;0,26;3,36;10,97;31,20;9,78;1,48;0,47;32,09;33,04;10,97;31,20;9,78;1,48;-0,71;32,09;33,04;1,66;11,04;5,41;7,34;653170
IF_IP1_R1_8502005_JAM2M_OUT_-55, SUBCASE 1, Case 1 Time 1.;110;-12,81;-11,63;0,53;-3,38;-2,06;0,82;6,94;15,46;28,45;13,80;2,36;0,58;30,90;31,67;15,46;28,45;13,80;-3,38;-2,06;30,90;31,67;1,25;12,27;6,07;7,04;653175
IF_LD_R4_8502001_DIS1_INSF_23, SUBCASE 1, Case 1 Time 1.;52;-4,08;-4,77;1,21;-1,14;-1,03;0,54;8,18;11,03;29,28;9,33;1,32;0,44;30,10;31,04;11,03;29,28;9,33;1,32;-1,03;30,10;31,04;1,31;11,88;5,07;6,90;653170
IF_LD_R4_8502001_DIS1_INSF_-55, SUBCASE 1, Case 1 Time 1.;53;-4,33;-4,46;0,94;-1,11;-0,94;0,74;6,11;11,00;26,16;9,81;1,54;0,44;27,01;28,31;11,00;26,16;9,81;1,54;-0,94;27,01;28,31;1,40;9,75;4,96;6,29;653170
IF_TO_R4_8502005_FS11_82, SUBCASE 1, Case 1 Time 1.;30;-1,43;-2,76;1,15;-0,54;-0,68;0,04;7,79;8,09;25,79;7,31;0,83;0,32;26,40;26,73;8,09;25,79;7,31;0,83;-0,68;26,40;26,73;0,93;10,69;4,00;5,94;653170
IF_IP2_R4_8502005_FS11_82, SUBCASE 1, Case 1 Time 1.;27;-1,67;-3,00;1,20;-0,63;-0,67;0,32;7,39;7,65;23,99;6,82;0,80;0,29;24,55;24,87;7,65;23,99;6,82;0,80;-0,67;24,55;24,87;0,82;10,09;3,74;5,53;653170
IF_TO_R4_8502005_FS11_23, SUBCASE 1, Case 1 Time 1.;28;-1,52;-2,47;1,16;-0,50;-0,54;0,20;5,64;7,97;23,33;7,05;0,91;0,32;23,94;24,49;7,97;23,33;7,05;0,91;-0,54;23,94;24,49;0,99;9,12;3,91;5,44;653170
IF_TO_R4_8502005_DIS1_82, SUBCASE 1, Case 1 Time 1.;48;-2,40;-3,38;1,10;-0,78;-0,76;0,34;6,58;7,26;21,80;6,30;0,78;0,27;22,33;22,68;7,26;21,80;6,30;0,78;-0,76;22,33;22,68;0,75;9,32;3,43;5,04;653170
IF_IP2_R4_8502005_FS11_23, SUBCASE 1, Case 1 Time 1.;25;-1,82;-2,72;1,14;-0,59;-0,54;0,32;5,66;7,53;21,44;6,53;0,87;0,29;22,01;22,55;7,53;21,44;6,53;0,87;-0,54;22,01;22,55;0,87;8,39;3,60;5,01;653170
IF_TO_R4_8502005_FS11_-55, SUBCASE 1, Case 1 Time 1.;29;-1,69;-2,09;0,91;-0,46;-0,62;0,38;2,62;7,84;19,98;7,11;1,14;0,32;20,61;21,50;7,84;19,98;7,11;1,14;-0,62;20,61;21,50;1,08;6,97;3,79;4,78;653170
IF_IP2_R4_8502005_DIS1_82, SUBCASE 1, Case 1 Time 1.;45;-2,08;-3,14;1,07;-0,71;-0,68;0,48;6,23;6,68;20,31;5,81;0,71;0,25;20,79;21,08;6,68;20,31;5,81;0,71;-0,68;20,79;21,08;0,66;8,76;3,18;4,68;653170
IF_TO_R4_8502005_DIS1_23, SUBCASE 1, Case 1 Time 1.;46;-2,60;-3,14;0,92;-0,75;-0,64;0,41;5,76;7,23;19,48;6,09;0,85;0,28;20,02;20,61;7,23;19,48;6,09;0,85;-0,64;20,02;20,61;0,82;7,81;3,37;4,58;653170
IF_IP2_R4_8502005_FS11_-55, SUBCASE 1, Case 1 Time 1.;26;-2,04;-2,36;0,82;-0,55;-0,63;0,41;2,69;7,37;18,01;6,67;1,09;0,29;18,59;19,48;7,37;18,01;6,67;1,09;-0,63;18,59;19,48;0,96;6,32;3,51;4,33;653170
IF_IP2_R4_8502005_DIS1_23, SUBCASE 1, Case 1 Time 1.;43;-2,30;-2,92;0,90;-0,69;-0,56;0,49;5,55;6,69;18,07;5,63;0,79;0,26;18,57;19,10;6,69;18,07;5,63;0,79;-0,56;18,57;19,10;0,75;7,40;3,17;4,24;653170
IF_TO_R4_8502005_DIS1_-55, SUBCASE 1, Case 1 Time 1.;47;-2,86;-2,83;0,60;-0,72;-0,66;0,25;3,01;7,19;16,33;6,54;1,08;0,28;16,90;17,86;7,19;16,33;6,54;1,08;-0,66;16,90;17,86;0,91;5,75;3,29;3,97;653170
IF_IP2_R4_8502005_DIS1_-55, SUBCASE 1, Case 1 Time 1.;44;-2,58;-2,63;0,59;-0,67;-0,63;0,18;2,69;6,70;15,04;6,09;1,03;0,26;15,56;16,48;6,70;15,04;6,09;1,03;-0,63;15,56;16,48;0,83;5,28;3,06;3,66;653170
IF_CR_R1_8501009_FS11_82, SUBCASE 1, Case 1 Time 1.;21;-5,52;-5,33;0,12;-1,56;-0,85;0,57;2,76;4,59;9,82;4,03;0,69;0,10;9,82;9,85;-5,52;9,82;4,03;-1,56;-0,85;9,82;9,85;-0,07;4,47;1,53;2,19;653165
IF_CR_R1_8501009_FS11_-55, SUBCASE 1, Case 1 Time 1.;20;-5,99;-4,78;-0,37;-1,51;-0,75;0,07;0,32;4,56;6,47;4,09;0,70;0,10;7,73;8,89;-5,99;6,47;4,09;-1,51;-0,75;7,73;8,89;0,06;0,69;1,30;1,98;653114
IF_CR_R1_8501009_FS11_23, SUBCASE 1, Case 1 Time 1.;19;-5,73;-5,09;-0,09;-1,53;-0,72;0,48;1,78;4,57;7,22;3,59;0,61;0,10;8,55;8,22;-5,73;7,22;3,59;-1,53;-0,72;8,55;8,22;0,03;3,24;1,58;1,83;653108
IF_LD_JAM2M_IN_-55, SUBCASE 1, Case 1 Time 1.;107;-1,50;-8,09;-1,62;-0,08;-0,09;0,26;0,36;0,83;0,66;0,18;0,21;0,21;8,09;8,20;-1,50;-8,09;-1,62;0,21;0,21;8,09;8,20;0,07;-3,75;-0,81;1,82;653125
IF_IP1_JAM2M_OUT_-55, SUBCASE 1, Case 1 Time 1.;92;-0,44;-5,91;-0,53;-0,28;-0,13;0,17;0,43;0,37;0,97;0,86;0,42;0,36;5,92;6,04;-0,44;-5,91;0,86;0,42;0,36;5,92;6,04;-0,11;-1,90;0,07;1,34;653175
IF_IP1_R1_8502005_FS11_82, SUBCASE 1, Case 1 Time 1.;24;-2,87;-2,81;-0,44;-0,84;-0,45;0,46;0,55;1,56;5,63;1,84;0,39;0,10;5,63;5,56;-2,87;5,63;1,84;-0,84;-0,45;5,63;5,56;-0,25;1,67;0,23;1,23;653170
IF_IP1_R1_8502005_FS11_-55, SUBCASE 1, Case 1 Time 1.;23;-3,51;-5,36;-0,79;-0,78;-0,39;0,30;0,50;1,75;2,62;1,48;0,35;0,08;5,36;5,48;-3,51;-5,36;1,48;-0,78;-0,39;5,36;5,48;-0,12;-2,10;0,01;1,22;653120
IF_TO_JAM2M_OUT_-55, SUBCASE 1, Case 1 Time 1.;104;-0,55;-5,46;-0,70;-0,25;-0,13;0,06;0,30;0,40;0,84;0,58;0,36;0,33;5,47;5,47;-0,55;-5,46;-0,70;0,36;0,33;5,47;5,47;-0,08;-2,22;-0,11;1,22;653175
IF_TO_JAM2M_IN_-55, SUBCASE 1, Case 1 Time 1.;101;-0,73;-5,01;-1,01;-0,14;-0,17;0,29;0,39;1,14;1,33;1,09;0,23;0,10;5,01;5,06;1,14;-5,01;1,09;0,23;-0,17;5,01;5,06;0,26;-1,94;-0,09;1,12;653140
IF_IP1_JAM2M_OUT_82, SUBCASE 1, Case 1 Time 1.;93;-1,16;-1,54;-0,99;-0,17;-0,04;0,20;0,53;1,01;4,99;1,36;0,14;0,16;4,99;5,06;-1,16;4,99;1,36;-0,17;0,16;4,99;5,06;-0,26;1,75;0,26;1,12;653130
IF_IP2_JAM2M_OUT_-55, SUBCASE 1, Case 1 Time 1.;98;-0,39;-4,98;-0,38;-0,21;-0,13;0,14;0,35;0,31;0,56;0,60;0,31;0,30;5,00;4,97;-0,39;-4,98;0,60;0,31;0,30;5,00;4,97;-0,03;-1,86;0,05;1,10;653175
IF_IP2_JAM2M_OUT_82, SUBCASE 1, Case 1 Time 1.;99;-0,76;-0,74;-0,58;-0,13;-0,08;0,15;0,33;0,62;4,79;1,06;0,09;0,11;4,79;4,84;-0,76;4,79;1,06;-0,13;0,11;4,79;4,84;-0,17;1,94;0,30;1,08;653135
IF_IP2_JAM2M_IN_82, SUBCASE 1, Case 1 Time 1.;96;-0,24;-0,68;-0,53;-0,31;-0,30;0,11;0,58;1,07;4,89;1,11;0,22;0,08;4,89;4,84;1,07;4,89;1,11;-0,31;-0,30;4,89;4,84;0,19;2,40;0,35;1,07;653170
IF_TO_JAM2M_IN_82, SUBCASE 1, Case 1 Time 1.;102;-0,18;-0,53;-0,56;-0,28;-0,27;0,12;0,23;0,57;4,41;0,69;0,20;0,09;4,42;4,40;0,57;4,41;0,69;-0,28;-0,27;4,42;4,40;0,12;1,85;0,13;0,98;653175
IF_TO_JAM2M_OUT_82, SUBCASE 1, Case 1 Time 1.;105;-1,03;-1,31;-0,94;-0,17;-0,04;0,19;0,35;0,84;4,27;1,01;0,10;0,15;4,27;4,32;-1,03;4,27;1,01;-0,17;0,15;4,27;4,32;-0,22;1,55;0,13;0,96;653135
IF_IP2_JAM2M_IN_-55, SUBCASE 1, Case 1 Time 1.;95;-0,73;-4,22;-0,91;-0,16;-0,21;0,32;0,56;1,38;1,84;1,51;0,30;0,08;4,22;4,25;1,38;-4,22;1,51;0,30;-0,21;4,22;4,25;0,33;-1,37;0,13;0,95;653145
IF_LD_JAM2M_IN_23, SUBCASE 1, Case 1 Time 1.;106;-1,16;-3,67;-1,07;-0,24;-0,07;0,08;0,71;0,40;0,48;-0,32;0,17;0,08;3,75;3,68;-1,16;-3,67;-1,07;-0,24;0,08;3,75;3,68;-0,01;-1,47;-0,64;0,82;653135
IF_LD_JAM2M_IN_82, SUBCASE 1, Case 1 Time 1.;108;-0,92;-1,04;-0,96;-0,41;-0,23;0,02;0,19;0,43;3,38;-0,08;0,17;0,16;3,38;3,63;-0,92;3,38;-0,96;-0,41;-0,23;3,38;3,63;-0,06;0,13;-0,55;0,81;653175
IF_IP1_R1_8502005_FS11_23, SUBCASE 1, Case 1 Time 1.;22;-3,07;-2,55;-0,53;-0,81;-0,32;0,04;0,38;1,54;2,34;1,39;0,30;0,07;3,71;3,63;-3,07;-2,55;1,39;-0,81;-0,32;3,71;3,63;-0,19;0,12;0,16;0,81;653177
IF_IP1_JAM2M_OUT_23, SUBCASE 1, Case 1 Time 1.;91;-0,66;-2,21;-0,57;-0,16;-0,03;0,24;0,36;0,67;1,68;1,05;0,26;0,16;2,22;2,76;0,67;-2,21;1,05;0,26;0,16;2,22;2,76;-0,15;0,59;0,34;0,61;653175
IF_IP2_JAM2M_IN_23, SUBCASE 1, Case 1 Time 1.;94;-0,32;-0,50;-0,52;-0,18;-0,14;0,16;0,30;0,97;2,02;1,03;0,15;0,05;2,05;2,30;0,97;2,02;1,03;-0,18;-0,14;2,05;2,30;0,24;0,81;0,26;0,51;653130
IF_TO_JAM2M_OUT_23, SUBCASE 1, Case 1 Time 1.;103;-0,56;-1,68;-0,55;-0,13;-0,02;0,01;0,13;0,53;0,86;0,68;0,19;0,12;1,68;2,03;-0,56;-1,68;0,68;0,19;0,12;1,68;2,03;-0,15;-0,03;0,04;0,45;653175
IF_TO_JAM2M_IN_23, SUBCASE 1, Case 1 Time 1.;100;-0,25;-0,45;-0,60;-0,16;-0,11;0,05;0,12;0,51;1,55;0,60;0,11;0,03;1,55;1,84;0,51;1,55;-0,60;-0,16;-0,11;1,55;1,84;0,17;0,26;0,04;0,41;653175
IF_IP2_JAM2M_OUT_23, SUBCASE 1, Case 1 Time 1.;97;-0,34;-1,18;-0,21;-0,09;-0,01;0,09;0,18;0,26;1,38;0,72;0,15;0,09;1,38;1,60;-0,34;1,38;0,72;0,15;0,09;1,38;1,60;-0,10;0,35;0,20;0,36;653175
Ref CID;Coord Material;;;;;;;;;;;;;;;;;;;;;;;;;;
