LC_Name;LC_ID;qxMin;qyMin;qxyMin;qxzMin;qyzMin;qshearMin;qvonmisesMin;qxMax;qyMax;qxyMax;qxzMax;qyzMax;qshearMax;qvonmisesMax;qxAbsMax;qyAbsMax;qxyAbsMax;qxzAbsMax;qyzAbsMax;qshearAbsMax;qvonmisesAbsMax;qxAverage;qyAverage;qxyAverage;sigmaVonMisesMax;CriticalElemID
IF_CR_R1_8501009_-55, SUBCASE 1, Case 1 Time 1.;2;-12,48;-19,40;-8,64;-2,07;-3,70;0,37;0,90;18,86;26,45;6,64;2,47;2,30;26,92;25,71;18,86;26,45;-8,64;2,47;-3,70;26,92;25,71;1,24;2,17;0,48;10,28;652458
IF_CR_R1_8501009_JAM2_-55, SUBCASE 1, Case 1 Time 1.;74;-12,22;-19,00;-8,66;-2,08;-3,71;0,36;0,89;18,82;26,40;6,63;2,46;2,31;26,87;25,69;18,82;26,40;-8,66;2,46;-3,71;26,87;25,69;1,26;2,20;0,48;10,28;652458
IF_CR_R1_8501009_82, SUBCASE 1, Case 1 Time 1.;3;-20,91;-26,22;-7,30;-1,48;-2,62;0,07;0,84;12,74;22,32;6,94;2,22;3,01;26,37;25,54;-20,91;-26,22;-7,30;2,22;3,01;26,37;25,54;-0,75;-0,58;0,59;10,22;652473
IF_CR_R1_8501009_JAM2_82, SUBCASE 1, Case 1 Time 1.;75;-20,72;-25,89;-7,24;-1,47;-2,60;0,07;0,83;12,66;22,21;6,88;2,20;3,00;26,04;25,22;-20,72;-25,89;-7,24;2,20;3,00;26,04;25,22;-0,74;-0,56;0,59;10,09;652473
IF_LD_R4_8502001_JAM2M_INSF_-55, SUBCASE 1, Case 1 Time 1.;128;-3,96;-7,47;-8,80;-2,02;-3,46;0,28;0,48;17,56;23,96;6,88;2,14;2,25;24,15;24,79;17,56;23,96;-8,80;2,14;-3,46;24,15;24,79;1,85;2,98;0,46;9,92;652458
IF_CR_R1_8501009_23, SUBCASE 1, Case 1 Time 1.;1;-17,16;-23,14;-6,92;-1,57;-2,83;0,28;0,85;15,41;23,98;5,61;1,97;2,28;24,16;23,75;-17,16;23,98;-6,92;1,97;-2,83;24,16;23,75;0,11;0,61;0,54;9,50;652458
IF_CR_R1_8501009_JAM2_23, SUBCASE 1, Case 1 Time 1.;73;-16,94;-22,78;-6,93;-1,57;-2,83;0,24;0,76;15,34;23,90;5,58;1,96;2,26;24,07;23,69;-16,94;23,90;-6,93;1,96;-2,83;24,07;23,69;0,12;0,62;0,54;9,48;652458
IF_LD_R2_8502001_JAM2M_INSF_-55, SUBCASE 1, Case 1 Time 1.;125;-3,04;-7,13;-8,41;-1,94;-3,30;0,10;0,36;16,77;22,68;6,67;2,04;2,16;22,90;23,48;16,77;22,68;-8,41;2,04;-3,30;22,90;23,48;1,85;2,94;0,42;9,39;652458
IF_LD_R4_8502001_JAM2M_INSF_23, SUBCASE 1, Case 1 Time 1.;127;-8,76;-11,03;-6,98;-1,51;-2,58;0,04;0,34;14,24;21,57;5,58;1,64;1,66;21,69;22,64;14,24;21,57;-6,98;1,64;-2,58;21,69;22,64;0,70;1,39;0,51;9,05;652458
IF_LD_R4_8502001_-55, SUBCASE 1, Case 1 Time 1.;17;-6,56;-11,24;-7,70;-1,81;-3,17;0,43;0,45;15,53;21,88;5,42;2,03;2,02;22,27;21,96;15,53;21,88;-7,70;2,03;-3,17;22,27;21,96;1,45;2,40;0,41;8,78;652458
IF_LD_R2_8502001_-55, SUBCASE 1, Case 1 Time 1.;14;-5,41;-9,49;-7,60;-1,79;-3,11;0,42;0,55;15,30;21,28;5,41;1,97;1,99;21,67;21,48;15,30;21,28;-7,60;1,97;-3,11;21,67;21,48;1,52;2,48;0,39;8,59;652458
IF_TO_R4_8502005_JAM2M_IN_INSF_-55, SUBCASE 1, Case 1 Time 1.;119;-4,42;-7,55;-7,71;-1,81;-3,12;0,12;0,16;15,48;21,13;5,75;1,96;2,02;21,51;21,45;15,48;21,13;-7,71;1,96;-3,12;21,51;21,45;1,59;2,56;0,39;8,58;652458
IF_LD_R2_8502001_JAM2M_INSF_23, SUBCASE 1, Case 1 Time 1.;124;-7,79;-9,60;-6,60;-1,43;-2,43;0,05;0,30;13,45;20,26;5,33;1,53;1,57;20,37;21,31;13,45;20,26;-6,60;1,53;-2,43;20,37;21,31;0,70;1,35;0,48;8,52;652458
IF_IP2_R4_8502005_JAM2M_IN_-55, SUBCASE 1, Case 1 Time 1.;113;-5,31;-8,56;-7,56;-1,80;-3,10;0,15;0,33;15,21;21,11;5,40;1,98;2,01;21,49;21,15;15,21;21,11;-7,56;1,98;-3,10;21,49;21,15;1,49;2,39;0,39;8,46;652458
IF_LD_R4_8502001_JAM2_-55, SUBCASE 1, Case 1 Time 1.;89;-6,46;-11,13;-7,43;-1,76;-3,08;0,40;0,47;15,09;21,16;5,26;1,97;1,96;21,55;21,14;15,09;21,16;-7,43;1,97;-3,08;21,55;21,14;1,41;2,33;0,39;8,46;652458
IF_LD_R4_8502001_JAM2M_INSF_82, SUBCASE 1, Case 1 Time 1.;129;-12,63;-14,23;-5,61;-1,11;-1,91;0,23;0,49;11,73;19,83;5,67;1,48;2,04;19,92;21,08;-12,63;19,83;5,67;1,48;2,04;19,92;21,08;-0,15;0,20;0,55;8,43;652458
IF_TO_R4_8502005_JAM2_-55, SUBCASE 1, Case 1 Time 1.;83;-6,48;-10,84;-7,34;-1,75;-3,06;0,40;0,54;15,07;20,95;5,26;1,97;1,95;21,33;20,82;15,07;20,95;-7,34;1,97;-3,06;21,33;20,82;1,38;2,26;0,38;8,33;652458
IF_IP2_R4_8502005_JAM2_-55, SUBCASE 1, Case 1 Time 1.;80;-7,36;-11,84;-7,27;-1,76;-3,06;0,23;0,68;15,35;21,15;5,38;2,01;1,95;21,53;20,80;15,35;21,15;-7,27;2,01;-3,06;21,53;20,80;1,30;2,11;0,38;8,32;652458
IF_IP2_R4_8502005_-55, SUBCASE 1, Case 1 Time 1.;8;-7,89;-12,67;-7,11;-1,72;-3,01;0,16;0,70;15,26;20,93;5,34;2,00;1,92;21,31;20,47;15,26;20,93;-7,11;2,00;-3,01;21,31;20,47;1,23;2,01;0,37;8,19;652458
IF_TO_R4_8502005_-55, SUBCASE 1, Case 1 Time 1.;11;-6,91;-11,54;-7,15;-1,72;-3,00;0,22;0,56;14,92;20,63;5,20;1,95;1,91;21,01;20,37;14,92;20,63;-7,15;1,95;-3,00;21,01;20,37;1,31;2,16;0,37;8,15;652458
IF_IP2_R4_8502005_JAM2M_OUT_82, SUBCASE 1, Case 1 Time 1.;117;-16,84;-20,48;-6,08;-1,23;-2,10;0,08;0,57;8,38;15,40;5,71;1,85;2,49;20,59;20,04;-16,84;-20,48;-6,08;1,85;2,49;20,59;20,04;-0,91;-0,89;0,46;8,02;652473
IF_LD_R4_8502001_23, SUBCASE 1, Case 1 Time 1.;16;-11,22;-15,22;-5,93;-1,30;-2,30;0,15;0,34;12,27;19,47;4,35;1,52;1,52;19,59;19,90;12,27;19,47;-5,93;1,52;-2,30;19,59;19,90;0,32;0,83;0,46;7,96;652458
IF_LD_R2_8502001_JAM2M_INSF_82, SUBCASE 1, Case 1 Time 1.;126;-11,66;-12,82;-5,21;-1,03;-1,76;0,21;0,45;10,92;18,49;5,41;1,39;1,90;18,56;19,72;-11,66;18,49;5,41;1,39;1,90;18,56;19,72;-0,15;0,17;0,52;7,89;652458
IF_LD_R2_8502001_23, SUBCASE 1, Case 1 Time 1.;13;-10,09;-13,50;-5,82;-1,28;-2,24;0,13;0,41;12,04;18,88;4,23;1,47;1,40;18,99;19,40;12,04;18,88;-5,82;1,47;-2,24;18,99;19,40;0,39;0,91;0,45;7,76;652458
IF_IP2_R4_8502005_DIS3_-55, SUBCASE 1, Case 1 Time 1.;62;-7,17;-11,87;-6,93;-1,69;-2,98;0,07;0,42;14,57;19,87;5,05;1,92;1,88;20,25;19,34;14,57;19,87;-6,93;1,92;-2,98;20,25;19,34;1,22;2,05;0,36;7,74;652458
IF_LD_R2_8502001_JAM2_-55, SUBCASE 1, Case 1 Time 1.;86;-5,17;-9,27;-6,89;-1,64;-2,86;0,34;0,49;13,98;19,43;4,85;1,83;1,83;19,78;19,33;13,98;19,43;-6,89;1,83;-2,86;19,78;19,33;1,40;2,27;0,35;7,73;652458
IF_TO_R4_8502005_JAM2M_IN_INSF_23, SUBCASE 1, Case 1 Time 1.;118;-9,14;-11,49;-5,92;-1,30;-2,25;0,02;0,38;12,20;18,68;4,39;1,45;1,43;18,79;19,32;12,20;18,68;-5,92;1,45;-2,25;18,79;19,32;0,45;0,98;0,45;7,73;652458
IF_IP2_R4_8502005_JAM2M_OUT_-55, SUBCASE 1, Case 1 Time 1.;116;-8,53;-13,47;-6,77;-1,62;-2,90;0,34;0,69;14,63;19,86;5,05;1,92;1,82;20,22;19,26;14,63;19,86;-6,77;1,92;-2,90;20,22;19,26;1,08;1,86;0,37;7,71;652458
IF_IP2_R4_8502005_82, SUBCASE 1, Case 1 Time 1.;9;-16,18;-19,65;-5,75;-1,13;-2,01;0,03;0,60;9,03;16,61;5,39;1,77;2,38;19,76;19,20;-16,18;-19,65;-5,75;1,77;2,38;19,76;19,20;-0,76;-0,73;0,47;7,68;652473
IF_TO_R4_8502005_JAM2M_OUT_-55, SUBCASE 1, Case 1 Time 1.;122;-7,53;-12,35;-6,80;-1,62;-2,89;0,19;0,40;14,30;19,59;4,92;1,87;1,81;19,96;19,19;14,30;19,59;-6,80;1,87;-2,89;19,96;19,19;1,17;2,01;0,36;7,67;652458
IF_TO_R4_8502005_JAM2M_OUT_82, SUBCASE 1, Case 1 Time 1.;123;-15,92;-19,45;-5,87;-1,16;-1,98;0,07;0,53;8,04;15,16;5,52;1,76;2,37;19,55;19,15;-15,92;-19,45;-5,87;1,76;2,37;19,55;19,15;-0,82;-0,75;0,46;7,66;652473
IF_LD_R4_8502001_JAM2_23, SUBCASE 1, Case 1 Time 1.;88;-11,13;-15,14;-5,64;-1,24;-2,20;0,16;0,26;11,71;18,67;4,18;1,47;1,49;18,79;19,04;11,71;18,67;-5,64;1,47;-2,20;18,79;19,04;0,27;0,75;0,44;7,61;652458
IF_IP2_R4_8502005_JAM2M_IN_23, SUBCASE 1, Case 1 Time 1.;112;-10,02;-12,48;-5,77;-1,29;-2,23;0,10;0,46;11,93;18,57;4,21;1,47;1,41;18,69;18,97;11,93;18,57;-5,77;1,47;-2,23;18,69;18,97;0,35;0,81;0,44;7,59;652458
IF_TO_R4_8502005_JAM2_23, SUBCASE 1, Case 1 Time 1.;82;-11,14;-14,79;-5,55;-1,24;-2,18;0,17;0,25;11,52;18,41;4,18;1,47;1,50;18,53;18,69;11,52;18,41;-5,55;1,47;-2,18;18,53;18,69;0,24;0,68;0,43;7,48;652458
IF_IP2_R4_8502005_JAM2_23, SUBCASE 1, Case 1 Time 1.;79;-12,01;-15,74;-5,49;-1,24;-2,18;0,09;0,27;11,81;18,58;4,30;1,51;1,60;18,70;18,66;-12,01;18,58;-5,49;1,51;-2,18;18,70;18,66;0,16;0,53;0,43;7,46;652458
IF_IP2_R4_8502005_DIS3_82, SUBCASE 1, Case 1 Time 1.;63;-15,67;-18,90;-5,74;-1,16;-1,97;0,07;0,57;8,35;15,46;5,40;1,74;2,36;19,00;18,55;-15,67;-18,90;-5,74;1,74;2,36;19,00;18,55;-0,76;-0,69;0,46;7,42;652473
IF_LD_R4_8502001_DIS3_-55, SUBCASE 1, Case 1 Time 1.;71;-5,26;-9,53;-6,72;-1,60;-2,83;0,43;0,43;13,54;18,68;4,71;1,78;1,79;19,04;18,47;13,54;18,68;-6,72;1,78;-2,83;19,04;18,47;1,34;2,22;0,34;7,39;652458
IF_IP2_R4_8502005_JAM2_82, SUBCASE 1, Case 1 Time 1.;81;-15,74;-18,88;-5,60;-1,10;-1,96;0,03;0,60;9,10;16,82;5,24;1,73;2,34;18,99;18,46;-15,74;-18,88;-5,60;1,73;2,34;18,99;18,46;-0,69;-0,64;0,47;7,39;652473
IF_CR_R1_8501009_DIS3_82, SUBCASE 1, Case 1 Time 1.;57;-15,48;-18,93;-5,54;-1,15;-1,97;0,12;0,54;7,47;14,09;5,27;1,71;2,30;19,03;18,45;-15,48;-18,93;-5,54;1,71;2,30;19,03;18,45;-0,81;-0,79;0,41;7,38;652473
IF_TO_R4_8502005_DIS3_-55, SUBCASE 1, Case 1 Time 1.;65;-6,05;-10,46;-6,67;-1,61;-2,85;0,26;0,33;13,75;18,80;4,74;1,81;1,80;19,16;18,39;13,75;18,80;-6,67;1,81;-2,85;19,16;18,39;1,26;2,11;0,34;7,36;652458
IF_LD_R4_8502001_82, SUBCASE 1, Case 1 Time 1.;18;-15,05;-18,41;-5,60;-1,05;-1,86;0,06;0,57;9,79;17,78;5,23;1,67;2,26;18,49;18,36;-15,05;-18,41;-5,60;1,67;2,26;18,49;18,36;-0,53;-0,34;0,50;7,35;652458
IF_IP2_R4_8502005_23, SUBCASE 1, Case 1 Time 1.;7;-12,49;-16,54;-5,34;-1,21;-2,14;0,10;0,25;11,73;18,35;4,27;1,50;1,64;18,47;18,35;-12,49;18,35;-5,34;1,50;-2,14;18,47;18,35;0,10;0,44;0,42;7,34;652458
IF_TO_R4_8502005_82, SUBCASE 1, Case 1 Time 1.;12;-15,28;-18,59;-5,57;-1,07;-1,89;0,02;0,56;8,69;16,35;5,21;1,69;2,27;18,69;18,29;-15,28;-18,59;-5,57;1,69;2,27;18,69;18,29;-0,67;-0,58;0,47;7,32;652473
IF_TO_R4_8502005_23, SUBCASE 1, Case 1 Time 1.;10;-11,53;-15,45;-5,38;-1,20;-2,13;0,13;0,23;11,38;18,08;4,12;1,45;1,53;18,19;18,26;-11,53;18,08;-5,38;1,45;-2,13;18,19;18,26;0,18;0,59;0,43;7,30;652458
IF_LD_R4_8502001_JAM2_82, SUBCASE 1, Case 1 Time 1.;90;-14,95;-18,34;-5,55;-1,05;-1,85;0,03;0,55;9,21;16,95;5,19;1,66;2,23;18,42;18,15;-14,95;-18,34;-5,55;1,66;2,23;18,42;18,15;-0,58;-0,42;0,49;7,26;652473
IF_LD_R2_8502001_82, SUBCASE 1, Case 1 Time 1.;15;-13,95;-16,69;-5,21;-0,96;-1,73;0,07;0,54;9,56;17,17;4,85;1,57;2,12;17,25;17,86;-13,95;17,17;-5,21;1,57;2,12;17,25;17,86;-0,47;-0,27;0,49;7,14;652458
IF_CR_R1_8501009_DIS3_-55, SUBCASE 1, Case 1 Time 1.;56;-7,05;-11,96;-6,32;-1,54;-2,76;0,07;0,68;13,72;18,61;4,72;1,81;1,72;18,97;17,83;13,72;18,61;-6,32;1,81;-2,76;18,97;17,83;1,18;1,95;0,32;7,13;652458
IF_TO_R4_8502005_JAM2M_IN_INSF_82, SUBCASE 1, Case 1 Time 1.;120;-13,00;-14,64;-4,82;-0,90;-1,64;0,09;0,23;9,69;16,92;4,47;1,50;2,04;17,00;17,73;-13,00;16,92;-4,82;1,50;2,04;17,00;17,73;-0,40;-0,19;0,49;7,09;652458
IF_TO_R4_8502005_JAM2_82, SUBCASE 1, Case 1 Time 1.;84;-14,93;-17,96;-5,46;-1,04;-1,85;0,03;0,56;9,02;16,67;5,10;1,66;2,24;18,05;17,69;-14,93;-17,96;-5,46;1,66;2,24;18,05;17,69;-0,61;-0,50;0,48;7,08;652473
IF_IP2_R4_8502005_JAM2M_IN_82, SUBCASE 1, Case 1 Time 1.;114;-13,87;-15,61;-4,98;-0,96;-1,75;0,06;0,51;9,42;16,79;4,62;1,59;2,15;16,88;17,36;-13,87;16,79;-4,98;1,59;2,15;16,88;17,36;-0,50;-0,36;0,48;6,94;652458
IF_TO_R4_8502005_DIS3_82, SUBCASE 1, Case 1 Time 1.;66;-14,57;-17,54;-5,44;-1,09;-1,83;0,06;0,50;7,71;14,36;5,12;1,64;2,22;17,63;17,30;-14,57;-17,54;-5,44;1,64;2,22;17,63;17,30;-0,73;-0,63;0,44;6,92;652473
IF_IP2_R4_8502005_DIS3_23, SUBCASE 1, Case 1 Time 1.;61;-11,86;-15,77;-5,17;-1,17;-2,10;0,16;0,21;11,05;17,18;3,99;1,42;1,62;17,30;17,26;-11,86;17,18;-5,17;1,42;-2,10;17,30;17,26;0,09;0,48;0,41;6,91;652458
IF_LD_R2_8502001_JAM2_23, SUBCASE 1, Case 1 Time 1.;85;-9,82;-13,27;-5,09;-1,12;-1,98;0,13;0,30;10,58;16,84;3,76;1,32;1,31;16,94;17,18;10,58;16,84;-5,09;1,32;-1,98;16,94;17,18;0,27;0,70;0,40;6,87;652458
IF_IP2_R4_8502005_JAM2M_OUT_23, SUBCASE 1, Case 1 Time 1.;115;-13,12;-17,35;-4,99;-1,11;-2,03;0,21;0,53;11,09;17,15;4,26;1,41;1,75;17,42;17,12;-13,12;-17,35;-4,99;1,41;-2,03;17,42;17,12;-0,05;0,29;0,42;6,85;652458
IF_TO_R4_8502005_JAM2M_OUT_23, SUBCASE 1, Case 1 Time 1.;121;-12,15;-16,29;-5,02;-1,10;-2,01;0,16;0,30;10,75;16,91;4,06;1,36;1,63;17,02;17,05;-12,15;16,91;-5,02;1,36;-2,01;17,02;17,05;0,04;0,44;0,42;6,82;652458
IF_LD_R4_8502001_DIS3_82, SUBCASE 1, Case 1 Time 1.;72;-13,84;-16,66;-5,25;-1,03;-1,74;0,06;0,46;7,78;14,30;4,93;1,57;2,12;16,74;16,53;-13,84;-16,66;-5,25;1,57;2,12;16,74;16,53;-0,65;-0,52;0,44;6,61;652473
IF_LD_R4_8502001_DIS3_23, SUBCASE 1, Case 1 Time 1.;70;-9,96;-13,50;-4,95;-1,09;-1,96;0,10;0,16;10,27;16,03;3,58;1,27;1,38;16,14;16,38;10,27;16,03;-4,95;1,27;-1,96;16,14;16,38;0,20;0,66;0,39;6,55;652458
IF_CR_R1_8501009_DIS1_82, SUBCASE 1, Case 1 Time 1.;39;-14,69;-16,60;-5,67;-1,27;-1,95;0,21;0,44;4,47;8,49;5,40;1,75;2,37;16,69;16,37;-14,69;-16,60;-5,67;1,75;2,37;16,69;16,37;-1,14;-1,05;0,37;6,55;652473
IF_TO_R4_8502005_DIS3_23, SUBCASE 1, Case 1 Time 1.;64;-10,73;-14,40;-4,90;-1,09;-1,97;0,05;0,17;10,22;16,09;3,67;1,31;1,48;16,20;16,29;-10,73;16,09;-4,90;1,31;-1,97;16,20;16,29;0,13;0,54;0,40;6,52;652458
IF_LD_R2_8502001_JAM2_82, SUBCASE 1, Case 1 Time 1.;87;-13,64;-16,46;-5,06;-0,96;-1,69;0,02;0,48;8,06;15,08;4,73;1,53;2,05;16,54;16,27;-13,64;-16,46;-5,06;1,53;2,05;16,54;16,27;-0,59;-0,48;0,44;6,51;652473
IF_CR_R1_8501009_DIS3_23, SUBCASE 1, Case 1 Time 1.;55;-11,72;-15,83;-4,55;-1,03;-1,88;0,21;0,54;10,18;15,84;3,83;1,30;1,56;15,95;15,71;-11,72;15,84;-4,55;1,30;-1,88;15,95;15,71;0,04;0,38;0,37;6,28;652458
IF_LD_R2_8502001_DIS3_-55, SUBCASE 1, Case 1 Time 1.;68;-2,49;-5,57;-5,83;-1,40;-2,44;0,10;0,30;11,67;15,74;4,28;1,53;1,57;16,05;15,57;11,67;15,74;-5,83;1,53;-2,44;16,05;15,57;1,39;2,19;0,26;6,23;652458
IF_LD_R2_8502001_DIS1_INSF_-55, SUBCASE 1, Case 1 Time 1.;50;-1,79;-4,99;-5,51;-1,33;-2,30;0,14;0,17;11,01;14,66;4,12;1,44;1,48;14,94;14,48;11,01;14,66;-5,51;1,44;-2,30;14,94;14,48;1,37;2,15;0,24;5,79;652458
IF_IP1_R1_8502005_JAM2M_OUT_82, SUBCASE 1, Case 1 Time 1.;111;-12,21;-14,14;-4,76;-1,18;-1,66;0,10;0,38;3,18;5,34;4,61;1,50;1,98;14,23;13,83;-12,21;-14,14;-4,76;1,50;1,98;14,23;13,83;-1,45;-1,63;0,19;5,53;652473
IF_CR_R1_8501009_DIS1_23, SUBCASE 1, Case 1 Time 1.;37;-10,85;-13,55;-4,16;-0,86;-1,38;0,12;0,43;6,99;10,39;3,95;1,12;1,63;13,61;13,48;-10,85;-13,55;-4,16;1,12;1,63;13,61;13,48;-0,28;0,13;0,33;5,39;652473
IF_CR_R1_8501009_DIS1_-55, SUBCASE 1, Case 1 Time 1.;38;-6,09;-9,74;-5,06;-1,16;-2,26;0,06;0,55;10,41;13,52;3,45;1,36;1,39;13,83;13,43;10,41;13,52;-5,06;1,36;-2,26;13,83;13,43;0,85;1,70;0,27;5,37;652280
IF_LD_R2_8502001_DIS3_23, SUBCASE 1, Case 1 Time 1.;67;-7,15;-9,56;-4,02;-0,88;-1,56;0,07;0,25;8,34;13,01;2,93;1,02;0,98;13,09;13,37;8,34;13,01;-4,02;1,02;-1,56;13,09;13,37;0,25;0,61;0,31;5,35;652458
IF_IP1_R1_8502005_82, SUBCASE 1, Case 1 Time 1.;6;-11,31;-13,23;-4,09;-0,92;-1,49;0,14;0,46;3,49;7,48;3,93;1,33;1,75;13,32;12,84;-11,31;-13,23;-4,09;1,33;1,75;13,32;12,84;-0,87;-1,00;0,26;5,14;652473
IF_LD_R2_8502001_FS11_-55, SUBCASE 1, Case 1 Time 1.;32;-1,34;-4,48;-4,95;-1,20;-2,06;0,04;0,14;10,01;12,90;3,67;1,32;1,34;13,14;12,65;10,01;12,90;-4,95;1,32;-2,06;13,14;12,65;1,27;1,96;0,19;5,06;652280
IF_LD_R2_8502001_DIS3_82, SUBCASE 1, Case 1 Time 1.;69;-10,99;-12,71;-4,17;-0,81;-1,39;0,10;0,35;5,81;11,22;3,90;1,30;1,72;12,78;12,60;-10,99;-12,71;-4,17;1,30;1,72;12,78;12,60;-0,60;-0,56;0,35;5,04;652473
IF_IP1_R1_8502005_JAM2_82, SUBCASE 1, Case 1 Time 1.;78;-11,17;-12,96;-4,05;-0,91;-1,48;0,16;0,44;3,46;7,72;3,88;1,32;1,74;13,05;12,59;-11,17;-12,96;-4,05;1,32;1,74;13,05;12,59;-0,84;-0,96;0,27;5,04;652473
IF_LD_R4_8502001_DIS1_INSF_-55, SUBCASE 1, Case 1 Time 1.;53;-1,29;-4,45;-4,86;-1,18;-2,04;0,09;0,24;9,74;12,76;3,63;1,29;1,33;13,02;12,48;9,74;12,76;-4,86;1,29;-2,04;13,02;12,48;1,30;2,00;0,19;4,99;652280
IF_LD_R4_8502001_FS11_-55, SUBCASE 1, Case 1 Time 1.;35;-1,30;-4,38;-4,78;-1,17;-2,01;0,12;0,16;9,74;12,58;3,51;1,29;1,31;12,82;12,28;9,74;12,58;-4,78;1,29;-2,01;12,82;12,28;1,27;1,93;0,18;4,91;652458
IF_LD_R2_8502001_DIS1_INSF_23, SUBCASE 1, Case 1 Time 1.;49;-6,38;-8,46;-3,67;-0,80;-1,41;0,02;0,25;7,60;11,80;2,71;0,92;0,88;11,87;12,17;7,60;11,80;-3,67;0,92;-1,41;11,87;12,17;0,23;0,57;0,28;4,87;652458
IF_IP1_R1_8502005_JAM2_-55, SUBCASE 1, Case 1 Time 1.;77;-2,64;-5,88;-4,54;-1,15;-2,04;0,08;0,56;9,79;12,58;3,29;1,31;1,29;12,85;12,16;9,79;12,58;-4,54;1,31;-2,04;12,85;12,16;1,15;1,80;0,18;4,86;652280
IF_IP1_R1_8502005_-55, SUBCASE 1, Case 1 Time 1.;5;-2,83;-6,21;-4,41;-1,12;-2,00;0,14;0,56;9,64;12,31;3,24;1,29;1,26;12,57;11,87;9,64;12,31;-4,41;1,29;-2,00;12,57;11,87;1,11;1,74;0,17;4,75;652280
IF_LD_R2_8502001_DIS1_INSF_82, SUBCASE 1, Case 1 Time 1.;51;-10,19;-11,57;-3,90;-0,76;-1,29;0,12;0,30;5,04;9,96;3,63;1,22;1,61;11,63;11,48;-10,19;-11,57;-3,90;1,22;1,61;11,63;11,48;-0,62;-0,61;0,32;4,59;652473
IF_CR_R1_8501009_FS11_82, SUBCASE 1, Case 1 Time 1.;21;-9,83;-11,40;-3,55;-0,74;-1,27;0,12;0,37;2,66;6,64;3,36;1,18;1,51;11,47;11,08;-9,83;-11,40;-3,55;1,18;1,51;11,47;11,08;-0,84;-1,04;0,22;4,43;652473
IF_LD_R2_8502001_FS11_82, SUBCASE 1, Case 1 Time 1.;33;-9,66;-11,24;-3,64;-0,71;-1,22;0,09;0,30;3,81;8,24;3,39;1,17;1,52;11,30;11,07;-9,66;-11,24;-3,64;1,17;1,52;11,30;11,07;-0,71;-0,80;0,28;4,43;652473
IF_TO_R4_8502005_FS11_-55, SUBCASE 1, Case 1 Time 1.;29;-1,18;-4,02;-4,30;-1,07;-1,84;0,21;0,25;8,99;11,33;3,08;1,20;1,21;11,55;11,06;8,99;11,33;-4,30;1,20;-1,84;11,55;11,06;1,21;1,80;0,14;4,42;652280
IF_IP1_R1_8502005_JAM2M_OUT_23, SUBCASE 1, Case 1 Time 1.;109;-8,38;-11,05;-3,24;-0,76;-1,08;0,08;0,19;4,16;5,47;3,15;0,87;1,23;11,10;10,90;-8,38;-11,05;-3,24;0,87;1,23;11,10;10,90;-0,58;-0,44;0,15;4,36;652473
IF_CR_R1_8501009_FS11_-55, SUBCASE 1, Case 1 Time 1.;20;-1,54;-4,36;-4,11;-1,03;-1,80;0,14;0,52;9,06;11,40;3,06;1,20;1,17;11,62;10,84;9,06;11,40;-4,11;1,20;-1,80;11,62;10,84;1,15;1,72;0,13;4,33;652280
IF_LD_R4_8502001_FS11_82, SUBCASE 1, Case 1 Time 1.;36;-9,43;-10,96;-3,58;-0,69;-1,19;0,11;0,31;3,50;7,92;3,33;1,14;1,48;11,02;10,82;-9,43;-10,96;-3,58;1,14;1,48;11,02;10,82;-0,72;-0,82;0,27;4,33;652473
IF_IP2_R4_8502005_FS11_-55, SUBCASE 1, Case 1 Time 1.;26;-1,16;-3,87;-4,09;-1,04;-1,76;0,20;0,34;8,81;10,91;3,01;1,18;1,16;11,12;10,61;8,81;10,91;-4,09;1,18;-1,76;11,12;10,61;1,16;1,69;0,12;4,24;652280
IF_LD_R4_8502001_DIS1_INSF_82, SUBCASE 1, Case 1 Time 1.;54;-9,29;-10,51;-3,55;-0,70;-1,18;0,13;0,25;3,70;8,06;3,31;1,13;1,47;10,57;10,40;-9,29;-10,51;-3,55;1,13;1,47;10,57;10,40;-0,69;-0,75;0,28;4,16;652473
IF_LD_R2_8502001_FS11_23, SUBCASE 1, Case 1 Time 1.;31;-5,91;-8,08;-3,10;-0,67;-1,18;0,03;0,22;6,38;10,08;2,28;0,81;0,78;10,13;10,37;6,38;10,08;-3,10;0,81;-1,18;10,13;10,37;0,14;0,38;0,24;4,15;652458
IF_TO_R4_8502005_DIS1_-55, SUBCASE 1, Case 1 Time 1.;47;-1,05;-3,77;-4,01;-1,00;-1,72;0,08;0,27;8,31;10,35;2,94;1,11;1,13;10,56;10,24;8,31;10,35;-4,01;1,11;-1,72;10,56;10,24;1,19;1,78;0,12;4,09;652280
IF_LD_R4_8502001_DIS1_INSF_23, SUBCASE 1, Case 1 Time 1.;52;-5,51;-7,38;-3,02;-0,66;-1,16;0,02;0,17;6,27;9,90;2,23;0,77;0,73;9,96;10,19;6,27;9,90;-3,02;0,77;-1,16;9,96;10,19;0,17;0,43;0,24;4,08;652458
IF_LD_R4_8502001_FS11_23, SUBCASE 1, Case 1 Time 1.;34;-5,68;-7,81;-2,94;-0,64;-1,13;0,03;0,20;6,11;9,76;2,19;0,77;0,74;9,81;10,01;6,11;9,76;-2,94;0,77;-1,13;9,81;10,01;0,14;0,36;0,23;4,00;652458
IF_TO_R4_8502005_FS11_82, SUBCASE 1, Case 1 Time 1.;30;-8,90;-10,13;-3,32;-0,66;-1,13;0,12;0,33;2,61;6,60;3,08;1,09;1,39;10,19;9,92;-8,90;-10,13;-3,32;1,09;1,39;10,19;9,92;-0,78;-0,95;0,23;3,97;652473
IF_IP1_R1_8502005_23, SUBCASE 1, Case 1 Time 1.;4;-7,51;-10,14;-2,62;-0,60;-1,12;0,14;0,40;6,07;9,28;2,48;0,78;1,01;10,19;9,91;-7,51;-10,14;-2,62;0,78;-1,12;10,19;9,91;-0,02;0,17;0,22;3,96;652473
IF_IP2_R4_8502005_FS11_82, SUBCASE 1, Case 1 Time 1.;27;-8,95;-10,11;-3,24;-0,66;-1,14;0,12;0,36;2,42;6,14;3,01;1,09;1,39;10,17;9,81;-8,95;-10,11;-3,24;1,09;1,39;10,17;9,81;-0,83;-1,06;0,21;3,93;652473
IF_IP1_R1_8502005_JAM2_23, SUBCASE 1, Case 1 Time 1.;76;-7,35;-9,85;-2,74;-0,63;-1,16;0,14;0,39;6,20;9,54;2,43;0,80;1,00;9,90;9,63;-7,35;-9,85;-2,74;0,80;-1,16;9,90;9,63;0,02;0,23;0,23;3,85;652473
IF_IP1_R1_8502005_DIS3_82, SUBCASE 1, Case 1 Time 1.;60;-8,84;-9,91;-3,26;-0,76;-1,19;0,04;0,40;2,03;4,26;3,13;1,10;1,42;9,98;9,61;-8,84;-9,91;-3,26;1,10;1,42;9,98;9,61;-0,87;-1,07;0,19;3,84;652473
IF_IP2_R4_8502005_DIS1_-55, SUBCASE 1, Case 1 Time 1.;44;-0,99;-3,52;-3,66;-0,93;-1,60;0,04;0,27;7,85;9,50;2,65;1,05;1,05;9,70;9,42;7,85;9,50;-3,66;1,05;-1,60;9,70;9,42;1,12;1,64;0,10;3,77;652280
IF_IP1_R1_8502005_DIS3_-55, SUBCASE 1, Case 1 Time 1.;59;-0,95;-3,54;-3,53;-0,92;-1,62;0,10;0,24;7,59;9,27;2,50;1,02;1,04;9,43;9,21;7,59;9,27;-3,53;1,02;-1,62;9,43;9,21;1,12;1,68;0,10;3,68;652280
IF_TO_R4_8502005_DIS1_82, SUBCASE 1, Case 1 Time 1.;48;-8,28;-9,10;-3,10;-0,63;-1,06;0,15;0,35;1,90;5,47;2,89;1,04;1,32;9,18;8,90;-8,28;-9,10;-3,10;1,04;1,32;9,18;8,90;-0,79;-0,98;0,21;3,56;652473
IF_IP1_R1_8502005_DIS1_82, SUBCASE 1, Case 1 Time 1.;42;-8,43;-8,85;-3,28;-0,80;-1,18;0,06;0,18;1,24;3,49;3,15;1,11;1,44;8,97;8,82;-8,43;-8,85;-3,28;1,11;1,44;8,97;8,82;-1,01;-1,16;0,17;3,53;652714
IF_IP2_R4_8502005_DIS1_82, SUBCASE 1, Case 1 Time 1.;45;-8,19;-8,88;-2,98;-0,63;-1,06;0,09;0,35;1,40;4,53;2,78;1,03;1,30;9,00;8,59;-8,19;-8,88;-2,98;1,03;1,30;9,00;8,59;-0,86;-1,12;0,18;3,44;652473
IF_TO_R4_8502005_FS11_23, SUBCASE 1, Case 1 Time 1.;28;-5,18;-7,00;-2,46;-0,55;-0,96;0,05;0,13;5,37;8,45;1,94;0,68;0,65;8,49;8,54;5,37;8,45;-2,46;0,68;-0,96;8,49;8,54;0,08;0,23;0,19;3,42;652458
IF_CR_R1_8501009_FS11_23, SUBCASE 1, Case 1 Time 1.;19;-6,13;-8,29;-2,27;-0,53;-0,92;0,11;0,29;5,43;8,50;1,94;0,69;0,77;8,55;8,38;-6,13;8,50;-2,27;0,69;-0,92;8,55;8,38;0,02;0,15;0,18;3,35;652458
IF_IP2_R4_8502005_FS11_23, SUBCASE 1, Case 1 Time 1.;25;-5,27;-6,99;-2,24;-0,52;-0,89;0,02;0,13;5,18;8,00;1,89;0,66;0,65;8,05;7,98;-5,27;8,00;-2,24;0,66;-0,89;8,05;7,98;0,03;0,12;0,17;3,19;652458
IF_LD_JAM2M_IN_-55, SUBCASE 1, Case 1 Time 1.;107;-0,65;-2,99;-3,38;-0,96;-1,35;0,17;0,61;6,48;7,11;3,40;0,96;0,96;7,11;7,69;6,48;7,11;3,40;0,96;-1,35;7,11;7,69;1,57;2,20;0,02;3,08;652280
IF_IP1_R1_8502005_DIS1_-55, SUBCASE 1, Case 1 Time 1.;41;-0,70;-3,14;-3,04;-0,76;-1,42;0,16;0,23;6,27;7,54;2,29;0,84;0,90;7,57;7,67;6,27;7,54;-3,04;0,84;-1,42;7,57;7,67;1,00;1,59;0,08;3,07;652280
IF_TO_R4_8502005_DIS1_23, SUBCASE 1, Case 1 Time 1.;46;-4,56;-6,00;-2,16;-0,48;-0,84;0,05;0,09;4,65;7,35;1,67;0,59;0,58;7,40;7,45;4,65;7,35;-2,16;0,59;-0,84;7,40;7,45;0,06;0,20;0,17;2,98;652458
IF_IP1_R1_8502005_JAM2M_OUT_-55, SUBCASE 1, Case 1 Time 1.;110;-3,72;-7,13;-2,59;-0,63;-1,35;0,06;0,33;6,06;7,00;2,08;0,81;0,85;7,15;7,21;6,06;-7,13;-2,59;0,81;-1,35;7,15;7,21;0,56;1,14;0,10;2,88;652473
IF_IP1_JAM2M_OUT_82, SUBCASE 1, Case 1 Time 1.;93;-6,24;-7,27;-2,44;-0,70;-0,87;0,06;0,44;0,75;2,55;2,36;0,85;1,04;7,32;7,01;-6,24;-7,27;-2,44;0,85;1,04;7,32;7,01;-1,24;-1,69;0,02;2,80;652473
IF_IP1_R1_8502005_FS11_-55, SUBCASE 1, Case 1 Time 1.;23;-0,65;-2,78;-2,77;-0,74;-1,26;0,24;0,49;5,94;6,85;2,01;0,81;0,84;6,86;6,89;5,94;6,85;-2,77;0,81;-1,26;6,86;6,89;1,16;1,64;0,01;2,75;652280
IF_IP2_JAM2M_IN_-55, SUBCASE 1, Case 1 Time 1.;95;-0,61;-2,84;-2,48;-0,96;-1,15;0,12;0,18;6,46;6,80;2,56;0,81;0,93;6,89;6,74;6,46;6,80;2,56;-0,96;-1,15;6,89;6,74;1,40;1,93;-0,03;2,70;652714
IF_TO_JAM2M_IN_-55, SUBCASE 1, Case 1 Time 1.;101;-0,61;-2,82;-2,58;-0,95;-1,14;0,14;0,21;6,41;6,75;2,64;0,82;0,93;6,84;6,70;6,41;6,75;2,64;-0,95;-1,14;6,84;6,70;1,41;1,96;-0,02;2,68;652714
IF_IP1_R1_8502005_DIS3_23, SUBCASE 1, Case 1 Time 1.;58;-5,04;-6,82;-1,75;-0,39;-0,74;0,10;0,27;3,99;6,09;1,68;0,51;0,68;6,85;6,67;-5,04;-6,82;-1,75;0,51;-0,74;6,85;6,67;-0,02;0,11;0,15;2,67;652473
IF_IP2_R4_8502005_DIS1_23, SUBCASE 1, Case 1 Time 1.;43;-4,52;-5,81;-1,81;-0,41;-0,71;0,04;0,11;4,19;6,44;1,51;0,53;0,57;6,48;6,41;-4,52;6,44;-1,81;0,53;-0,71;6,48;6,41;-0,01;0,06;0,14;2,57;652458
IF_IP1_R1_8502005_FS11_82, SUBCASE 1, Case 1 Time 1.;24;-6,18;-6,50;-2,28;-0,54;-0,85;0,09;0,20;0,65;2,51;2,18;0,84;1,04;6,59;6,33;-6,18;-6,50;-2,28;0,84;1,04;6,59;6,33;-0,83;-1,12;0,11;2,53;652714
IF_IP2_JAM2M_OUT_82, SUBCASE 1, Case 1 Time 1.;99;-5,49;-5,95;-2,14;-0,64;-0,78;0,06;0,30;0,60;2,34;2,09;0,78;0,95;6,03;5,72;-5,49;-5,95;-2,14;0,78;0,95;6,03;5,72;-1,13;-1,54;0,02;2,29;652714
IF_IP1_R1_8502005_DIS1_23, SUBCASE 1, Case 1 Time 1.;40;-4,63;-5,78;-1,76;-0,38;-0,60;0,03;0,16;2,63;3,93;1,69;0,48;0,70;5,81;5,72;-4,63;-5,78;-1,76;0,48;0,70;5,81;5,72;-0,15;0,02;0,13;2,29;652473
IF_TO_JAM2M_OUT_82, SUBCASE 1, Case 1 Time 1.;105;-5,28;-5,73;-2,35;-0,69;-0,76;0,09;0,37;0,56;2,25;2,27;0,76;0,94;5,81;5,50;-5,28;-5,73;-2,35;0,76;0,94;5,81;5,50;-1,17;-1,62;0,01;2,20;652714
IF_LD_JAM2M_IN_23, SUBCASE 1, Case 1 Time 1.;106;-1,21;-2,33;-1,53;-0,33;-0,47;0,05;0,13;2,90;3,89;1,65;0,32;0,35;3,91;4,43;2,90;3,89;1,65;-0,33;-0,47;3,91;4,43;0,42;0,60;0,07;1,77;652458
IF_IP1_JAM2M_OUT_23, SUBCASE 1, Case 1 Time 1.;91;-2,53;-4,13;-1,10;-0,23;-0,29;0,03;0,09;1,55;2,33;0,97;0,22;0,29;4,15;4,03;-2,53;-4,13;-1,10;-0,23;0,29;4,15;4,03;-0,38;-0,50;-0,02;1,61;652473
IF_TO_JAM2M_OUT_-55, SUBCASE 1, Case 1 Time 1.;104;-1,03;-2,03;-1,38;-0,69;-0,80;0,15;0,46;3,63;3,66;1,57;0,48;0,57;3,66;3,96;3,63;3,66;1,57;-0,69;-0,80;3,66;3,96;0,83;1,15;-0,08;1,58;652362
IF_IP2_JAM2M_OUT_-55, SUBCASE 1, Case 1 Time 1.;98;-0,98;-1,94;-1,30;-0,67;-0,77;0,17;0,47;3,54;3,49;1,48;0,52;0,55;3,54;3,84;3,54;3,49;1,48;-0,67;-0,77;3,54;3,84;0,87;1,23;-0,06;1,54;652362
IF_IP1_JAM2M_OUT_-55, SUBCASE 1, Case 1 Time 1.;92;-1,12;-1,69;-1,18;-0,59;-0,72;0,16;0,45;3,18;3,21;1,29;0,47;0,48;3,21;3,60;3,18;3,21;1,29;-0,59;-0,72;3,21;3,60;0,76;1,08;-0,07;1,44;652473
IF_IP1_R1_8502005_FS11_23, SUBCASE 1, Case 1 Time 1.;22;-2,41;-3,32;-0,97;-0,25;-0,38;0,04;0,13;2,30;3,55;0,86;0,30;0,29;3,58;3,46;-2,41;3,55;-0,97;0,30;-0,38;3,58;3,46;0,03;0,07;0,07;1,38;652458
IF_LD_JAM2M_IN_82, SUBCASE 1, Case 1 Time 1.;108;-2,63;-2,59;-1,19;-0,25;-0,38;0,07;0,25;1,00;1,98;1,59;0,49;0,58;2,63;2,99;-2,63;-2,59;1,59;0,49;0,58;2,63;2,99;-0,44;-0,58;0,11;1,19;652489
IF_TO_JAM2M_IN_82, SUBCASE 1, Case 1 Time 1.;102;-2,64;-2,59;-1,12;-0,34;-0,41;0,11;0,34;0,81;1,46;0,95;0,50;0,58;2,64;2,85;-2,64;-2,59;-1,12;0,50;0,58;2,64;2,85;-0,59;-0,82;0,07;1,14;652362
IF_IP2_JAM2M_IN_82, SUBCASE 1, Case 1 Time 1.;96;-2,61;-2,55;-1,09;-0,36;-0,40;0,12;0,34;0,80;1,44;0,92;0,49;0,57;2,61;2,82;-2,61;-2,55;-1,09;0,49;0,57;2,61;2,82;-0,60;-0,84;0,06;1,13;652362
IF_IP2_JAM2M_OUT_23, SUBCASE 1, Case 1 Time 1.;97;-1,71;-2,77;-0,78;-0,16;-0,20;0,02;0,07;1,04;1,61;0,68;0,15;0,20;2,78;2,70;-1,71;-2,77;-0,78;-0,16;0,20;2,78;2,70;-0,27;-0,35;-0,02;1,08;652473
IF_IP2_JAM2M_IN_23, SUBCASE 1, Case 1 Time 1.;94;-0,99;-1,56;-0,72;-0,14;-0,19;0,02;0,07;1,58;2,64;0,82;0,15;0,18;2,65;2,56;1,58;2,64;0,82;0,15;-0,19;2,65;2,56;0,25;0,34;0,02;1,03;652473
IF_TO_JAM2M_OUT_23, SUBCASE 1, Case 1 Time 1.;103;-1,69;-2,56;-1,02;-0,19;-0,20;0,03;0,09;0,97;1,68;0,90;0,19;0,27;2,57;2,54;-1,69;-2,56;-1,02;-0,19;0,27;2,57;2,54;-0,31;-0,43;-0,03;1,01;652458
IF_TO_JAM2M_IN_23, SUBCASE 1, Case 1 Time 1.;100;-1,00;-1,62;-0,79;-0,16;-0,22;0,03;0,08;1,54;2,58;0,91;0,17;0,18;2,59;2,50;1,54;2,58;0,91;0,17;-0,22;2,59;2,50;0,27;0,36;0,03;1,00;652473
Ref CID;Coord Material;;;;;;;;;;;;;;;;;;;;;;;;;;
