LC_Name;LC_ID;qxMin;qyMin;qxyMin;qxzMin;qyzMin;qshearMin;qvonmisesMin;qxMax;qyMax;qxyMax;qxzMax;qyzMax;qshearMax;qvonmisesMax;qxAbsMax;qyAbsMax;qxyAbsMax;qxzAbsMax;qyzAbsMax;qshearAbsMax;qvonmisesAbsMax;qxAverage;qyAverage;qxyAverage;sigmaVonMisesMax;CriticalElemID
IF_CR_R1_8501009_JAM2_-55, SUBCASE 1, Case 1 Time 1.;74;-1,78;-4,91;-36,02;-10,43;-8,73;15,68;37,32;104,11;148,38;36,40;7,72;4,26;148,58;145,02;104,11;148,38;36,40;-10,43;-8,73;148,58;145,02;20,53;52,47;-9,83;48,34;651540
IF_CR_R1_8501009_JAM2_23, SUBCASE 1, Case 1 Time 1.;73;-1,77;-4,96;-35,86;-10,36;-8,65;15,63;36,99;103,62;147,96;36,20;7,69;4,23;148,17;144,56;103,62;147,96;36,20;-10,36;-8,65;148,17;144,56;20,17;51,65;-9,70;48,19;651540
IF_CR_R1_8501009_JAM2_82, SUBCASE 1, Case 1 Time 1.;75;-1,76;-4,99;-35,74;-10,30;-8,59;15,59;36,74;103,24;147,67;36,06;7,67;4,20;147,88;144,24;103,24;147,67;36,06;-10,30;-8,59;147,88;144,24;20,34;52,15;-9,82;48,08;651540
IF_IP2_R4_8502005_JAM2M_IN_82, SUBCASE 1, Case 1 Time 1.;114;-1,06;-1,76;-29,65;-8,06;-7,26;13,23;42,05;96,42;146,15;29,68;6,33;3,70;146,22;144,11;96,42;146,15;29,68;-8,06;-7,26;146,22;144,11;20,24;52,34;-8,59;48,04;651540
IF_IP2_R4_8502005_JAM2M_IN_23, SUBCASE 1, Case 1 Time 1.;112;-1,06;-1,71;-29,69;-8,08;-7,29;13,23;42,07;96,54;146,09;29,74;6,33;3,72;146,16;144,08;96,54;146,09;29,74;-8,08;-7,29;146,16;144,08;19,64;50,74;-8,35;48,03;651540
IF_IP2_R4_8502005_JAM2M_IN_-55, SUBCASE 1, Case 1 Time 1.;113;-1,06;-1,66;-29,76;-8,12;-7,34;13,24;42,08;96,69;146,03;29,84;6,34;3,73;146,10;144,05;96,69;146,03;29,84;-8,12;-7,34;146,10;144,05;20,29;52,31;-8,55;48,02;651540
IF_CR_R1_8501009_82, SUBCASE 1, Case 1 Time 1.;3;-1,75;-5,05;-35,15;-10,14;-8,41;15,35;34,29;100,74;143,76;35,43;7,53;4,09;143,98;140,28;100,74;143,76;35,43;-10,14;-8,41;143,98;140,28;19,73;50,66;-9,66;46,76;651540
IF_CR_R1_8501009_23, SUBCASE 1, Case 1 Time 1.;1;-1,75;-5,03;-35,19;-10,17;-8,45;15,36;34,21;100,79;143,56;35,49;7,53;4,10;143,78;140,09;100,79;143,56;35,49;-10,17;-8,45;143,78;140,09;18,83;48,45;-9,23;46,70;651540
IF_CR_R1_8501009_-55, SUBCASE 1, Case 1 Time 1.;2;-1,76;-4,99;-35,25;-10,21;-8,50;15,36;34,12;100,86;143,30;35,58;7,54;4,12;143,52;139,87;100,86;143,30;35,58;-10,21;-8,50;143,52;139,87;19,72;50,49;-9,61;46,62;651540
IF_TO_R4_8502005_JAM2M_IN_INSF_82, SUBCASE 1, Case 1 Time 1.;120;-0,96;-1,38;-27,21;-7,27;-6,60;12,26;39,11;88,74;135,58;27,15;5,75;3,37;135,64;133,67;88,74;135,58;-27,21;-7,27;-6,60;135,64;133,67;18,72;48,47;-7,93;44,56;651540
IF_TO_R4_8502005_JAM2M_IN_INSF_23, SUBCASE 1, Case 1 Time 1.;118;-0,96;-1,35;-27,20;-7,28;-6,62;12,25;38,99;88,64;135,16;27,17;5,75;3,37;135,22;133,27;88,64;135,16;-27,20;-7,28;-6,62;135,22;133,27;18,47;47,79;-7,85;44,42;651540
IF_TO_R4_8502005_JAM2M_IN_INSF_-55, SUBCASE 1, Case 1 Time 1.;119;-0,95;-1,30;-27,21;-7,30;-6,65;12,23;38,84;88,50;134,62;27,20;5,74;3,38;134,69;132,76;88,50;134,62;-27,21;-7,30;-6,65;134,69;132,76;18,67;48,20;-7,87;44,25;651540
IF_LD_R4_8502001_JAM2M_INSF_82, SUBCASE 1, Case 1 Time 1.;129;-0,85;-1,64;-24,64;-6,39;-5,92;11,30;37,30;81,83;127,00;24,47;5,17;3,07;127,05;125,31;81,83;127,00;-24,64;-6,39;-5,92;127,05;125,31;17,48;45,38;-7,28;41,77;651540
IF_LD_R4_8502001_JAM2M_INSF_23, SUBCASE 1, Case 1 Time 1.;127;-0,85;-1,63;-24,62;-6,40;-5,94;11,27;37,16;81,67;126,48;24,48;5,16;3,07;126,54;124,82;81,67;126,48;-24,62;-6,40;-5,94;126,54;124,82;17,42;45,16;-7,24;41,61;651540
IF_LD_R4_8502001_JAM2M_INSF_-55, SUBCASE 1, Case 1 Time 1.;128;-0,83;-1,55;-24,41;-6,37;-5,92;11,18;36,46;80,66;124,43;24,31;5,11;3,04;124,49;122,80;80,66;124,43;-24,41;-6,37;-5,92;124,49;122,80;17,25;44,60;-7,15;40,93;651540
IF_LD_R2_8502001_JAM2M_INSF_82, SUBCASE 1, Case 1 Time 1.;126;-0,80;-1,63;-23,29;-5,92;-5,51;10,50;35,39;76,85;119,87;22,84;4,80;2,83;119,92;118,23;76,85;119,87;-23,29;-5,92;-5,51;119,92;118,23;16,36;42,73;-6,89;39,41;651540
IF_LD_R2_8502001_JAM2M_INSF_23, SUBCASE 1, Case 1 Time 1.;124;-0,79;-1,64;-23,22;-5,93;-5,53;10,47;35,28;76,73;119,44;22,84;4,79;2,83;119,50;117,83;76,73;119,44;-23,22;-5,93;-5,53;119,50;117,83;16,19;42,21;-6,83;39,28;651540
IF_IP2_R4_8502005_DIS3_82, SUBCASE 1, Case 1 Time 1.;63;-1,22;-3,26;-27,71;-7,80;-6,62;12,29;32,30;82,33;120,14;27,79;5,81;3,17;120,28;117,51;82,33;120,14;27,79;-7,80;-6,62;120,28;117,51;16,45;42,49;-7,78;39,17;651540
IF_IP2_R4_8502005_DIS3_23, SUBCASE 1, Case 1 Time 1.;61;-1,22;-3,23;-27,72;-7,82;-6,65;12,29;32,21;82,29;119,81;27,82;5,81;3,18;119,96;117,21;82,29;119,81;27,82;-7,82;-6,65;119,96;117,21;16,04;41,39;-7,57;39,07;651540
IF_LD_R2_8502001_JAM2M_INSF_-55, SUBCASE 1, Case 1 Time 1.;125;-0,78;-1,62;-23,06;-5,93;-5,54;10,42;35,00;76,35;118,53;22,81;4,76;2,83;118,58;116,94;76,35;118,53;-23,06;-5,93;-5,54;118,58;116,94;16,26;42,33;-6,80;38,98;651540
IF_IP2_R4_8502005_DIS3_-55, SUBCASE 1, Case 1 Time 1.;62;-1,22;-3,19;-27,74;-7,85;-6,69;12,28;32,10;82,24;119,40;27,88;5,81;3,19;119,55;116,83;82,24;119,40;27,88;-7,85;-6,69;119,55;116,83;16,42;42,28;-7,72;38,94;651540
IF_IP2_R4_8502005_JAM2_82, SUBCASE 1, Case 1 Time 1.;81;-1,06;-2,61;-26,26;-7,29;-6,29;11,64;32,66;80,33;118,93;26,26;5,51;3,03;119,05;116,56;80,33;118,93;-26,26;-7,29;-6,29;119,05;116,56;16,24;42,17;-7,50;38,85;651540
IF_IP2_R4_8502005_JAM2_23, SUBCASE 1, Case 1 Time 1.;79;-1,06;-2,57;-26,29;-7,32;-6,33;11,63;32,65;80,41;118,82;26,31;5,51;3,04;118,94;116,47;80,41;118,82;26,31;-7,32;-6,33;118,94;116,47;16,01;41,54;-7,39;38,82;651540
IF_IP2_R4_8502005_JAM2_-55, SUBCASE 1, Case 1 Time 1.;80;-1,06;-2,50;-26,34;-7,35;-6,37;11,63;32,64;80,51;118,70;26,39;5,52;3,06;118,81;116,39;80,51;118,70;26,39;-7,35;-6,37;118,81;116,39;16,28;42,15;-7,46;38,80;651540
IF_TO_R4_8502005_JAM2_82, SUBCASE 1, Case 1 Time 1.;84;-0,95;-2,32;-24,56;-6,77;-5,86;10,95;30,75;75,28;111,88;24,52;5,11;2,81;111,99;109,65;75,28;111,88;-24,56;-6,77;-5,86;111,99;109,65;15,26;39,66;-7,04;36,55;651540
IF_TO_R4_8502005_JAM2_23, SUBCASE 1, Case 1 Time 1.;82;-0,95;-2,28;-24,58;-6,79;-5,89;10,94;30,73;75,32;111,72;24,57;5,11;2,82;111,83;109,51;75,32;111,72;-24,58;-6,79;-5,89;111,83;109,51;15,31;39,74;-7,04;36,50;651540
IF_TO_R4_8502005_JAM2_-55, SUBCASE 1, Case 1 Time 1.;83;-0,95;-2,22;-24,62;-6,81;-5,93;10,93;30,70;75,39;111,54;24,63;5,11;2,84;111,65;109,37;75,39;111,54;24,63;-6,81;-5,93;111,65;109,37;15,30;39,62;-7,00;36,46;651540
IF_TO_R4_8502005_DIS3_82, SUBCASE 1, Case 1 Time 1.;66;-1,06;-2,83;-25,08;-7,00;-5,96;11,20;29,59;74,85;109,86;25,10;5,23;2,85;110,00;107,46;74,85;109,86;25,10;-7,00;-5,96;110,00;107,46;15,01;38,84;-7,08;35,82;651540
IF_TO_R4_8502005_DIS3_23, SUBCASE 1, Case 1 Time 1.;64;-1,06;-2,80;-25,10;-7,02;-5,99;11,20;29,51;74,84;109,57;25,14;5,23;2,85;109,71;107,19;74,84;109,57;25,14;-7,02;-5,99;109,71;107,19;15,07;38,94;-7,09;35,73;651540
IF_IP2_R4_8502005_82, SUBCASE 1, Case 1 Time 1.;9;-1,06;-2,84;-24,92;-6,98;-5,94;11,10;29,72;74,70;109,59;24,92;5,21;2,81;109,73;107,17;74,70;109,59;-24,92;-6,98;-5,94;109,73;107,17;14,92;38,75;-7,09;35,72;651540
IF_TO_R4_8502005_DIS3_-55, SUBCASE 1, Case 1 Time 1.;65;-1,06;-2,75;-25,14;-7,05;-6,04;11,20;29,41;74,82;109,22;25,21;5,23;2,87;109,35;106,87;74,82;109,22;25,21;-7,05;-6,04;109,35;106,87;15,01;38,71;-7,04;35,62;651540
IF_IP2_R4_8502005_23, SUBCASE 1, Case 1 Time 1.;7;-1,06;-2,80;-24,91;-6,99;-5,96;11,08;29,61;74,57;109,15;24,93;5,20;2,81;109,28;106,75;74,57;109,15;24,93;-6,99;-5,96;109,28;106,75;14,68;38,09;-6,96;35,58;651540
IF_IP2_R4_8502005_-55, SUBCASE 1, Case 1 Time 1.;8;-1,06;-2,75;-24,89;-7,00;-5,98;11,05;29,45;74,40;108,57;24,94;5,19;2,82;108,71;106,20;74,40;108,57;24,94;-7,00;-5,98;108,71;106,20;14,86;38,45;-7,01;35,40;651540
IF_LD_R2_8502001_82, SUBCASE 1, Case 1 Time 1.;15;-0,82;-1,81;-22,81;-6,20;-5,42;10,19;29,67;70,99;106,53;22,70;4,68;2,60;106,63;104,52;70,99;106,53;-22,81;-6,20;-5,42;106,63;104,52;14,48;37,77;-6,60;34,84;651540
IF_LD_R4_8502001_82, SUBCASE 1, Case 1 Time 1.;18;-0,91;-2,27;-23,51;-6,48;-5,59;10,56;28,99;71,60;106,11;23,48;4,84;2,66;106,22;103,95;71,60;106,11;-23,51;-6,48;-5,59;106,22;103,95;14,49;37,60;-6,71;34,65;651540
IF_LD_R2_8502001_23, SUBCASE 1, Case 1 Time 1.;13;-0,81;-1,76;-22,74;-6,19;-5,43;10,15;29,50;70,72;105,88;22,66;4,66;2,59;105,98;103,90;70,72;105,88;-22,74;-6,19;-5,43;105,98;103,90;14,42;37,55;-6,56;34,63;651540
IF_LD_R4_8502001_23, SUBCASE 1, Case 1 Time 1.;16;-0,91;-2,23;-23,45;-6,48;-5,60;10,53;28,83;71,36;105,51;23,44;4,82;2,66;105,62;103,38;71,36;105,51;-23,45;-6,48;-5,60;105,62;103,38;14,45;37,45;-6,67;34,46;651540
IF_LD_R2_8502001_-55, SUBCASE 1, Case 1 Time 1.;14;-0,80;-1,70;-22,66;-6,19;-5,44;10,09;29,27;70,36;105,05;22,61;4,64;2,59;105,14;103,10;70,36;105,05;-22,66;-6,19;-5,44;105,14;103,10;14,37;37,34;-6,50;34,37;651540
IF_LD_R4_8502001_-55, SUBCASE 1, Case 1 Time 1.;17;-0,91;-2,17;-23,38;-6,48;-5,61;10,48;28,63;71,05;104,75;23,40;4,80;2,66;104,86;102,65;71,05;104,75;23,40;-6,48;-5,61;104,86;102,65;14,39;37,22;-6,62;34,22;651540
IF_LD_R4_8502001_DIS3_82, SUBCASE 1, Case 1 Time 1.;72;-0,93;-2,40;-23,38;-6,46;-5,55;10,44;28,38;70,60;104,38;23,36;4,83;2,63;104,50;102,18;70,60;104,38;-23,38;-6,46;-5,55;104,50;102,18;14,21;36,91;-6,66;34,06;651540
IF_LD_R4_8502001_DIS3_23, SUBCASE 1, Case 1 Time 1.;70;-0,93;-2,36;-23,40;-6,48;-5,58;10,43;28,30;70,58;104,09;23,39;4,83;2,64;104,21;101,91;70,58;104,09;-23,40;-6,48;-5,58;104,21;101,91;14,05;36,44;-6,56;33,97;651540
IF_LD_R4_8502001_DIS3_-55, SUBCASE 1, Case 1 Time 1.;71;-0,93;-2,32;-23,43;-6,51;-5,62;10,42;28,20;70,55;103,74;23,45;4,83;2,66;103,85;101,58;70,55;103,74;23,45;-6,51;-5,62;103,85;101,58;14,21;36,75;-6,61;33,86;651540
IF_TO_R4_8502005_82, SUBCASE 1, Case 1 Time 1.;12;-0,96;-2,54;-23,38;-6,50;-5,55;10,49;28,09;70,30;103,56;23,35;4,85;2,62;103,68;101,29;70,30;103,56;-23,38;-6,50;-5,55;103,68;101,29;14,10;36,63;-6,66;33,76;651540
IF_TO_R4_8502005_23, SUBCASE 1, Case 1 Time 1.;10;-0,96;-2,50;-23,35;-6,51;-5,57;10,46;27,96;70,16;103,09;23,35;4,84;2,63;103,21;100,84;70,16;103,09;-23,35;-6,51;-5,57;103,21;100,84;14,11;36,60;-6,65;33,61;651540
IF_TO_R4_8502005_-55, SUBCASE 1, Case 1 Time 1.;11;-0,96;-2,45;-23,33;-6,52;-5,59;10,43;27,80;69,97;102,48;23,35;4,83;2,63;102,61;100,27;69,97;102,48;23,35;-6,52;-5,59;102,61;100,27;14,04;36,34;-6,59;33,42;651540
IF_CR_R1_8501009_DIS3_82, SUBCASE 1, Case 1 Time 1.;57;-1,11;-3,22;-24,16;-6,86;-5,71;10,62;24,31;70,46;101,93;24,15;5,04;2,63;102,10;99,37;70,46;101,93;-24,16;-6,86;-5,71;102,10;99,37;13,73;35,85;-6,84;33,12;651540
IF_CR_R1_8501009_DIS3_23, SUBCASE 1, Case 1 Time 1.;55;-1,11;-3,19;-24,19;-6,89;-5,75;10,62;24,21;70,49;101,69;24,20;5,04;2,64;101,85;99,15;70,49;101,69;24,20;-6,89;-5,75;101,85;99,15;13,41;34,97;-6,66;33,05;651540
IF_CR_R1_8501009_DIS3_-55, SUBCASE 1, Case 1 Time 1.;56;-1,12;-3,15;-24,24;-6,92;-5,79;10,62;24,08;70,51;101,39;24,28;5,05;2,65;101,55;98,87;70,51;101,39;24,28;-6,92;-5,79;101,55;98,87;13,73;35,70;-6,79;32,96;651540
IF_LD_R4_8502001_JAM2_82, SUBCASE 1, Case 1 Time 1.;90;-0,90;-2,35;-22,64;-6,27;-5,37;10,20;27,36;68,30;100,80;22,61;4,66;2,53;100,92;98,64;68,30;100,80;-22,64;-6,27;-5,37;100,92;98,64;13,75;35,68;-6,45;32,88;651540
IF_LD_R4_8502001_JAM2_23, SUBCASE 1, Case 1 Time 1.;88;-0,90;-2,30;-22,60;-6,27;-5,38;10,17;27,25;68,13;100,33;22,58;4,64;2,53;100,45;98,20;68,13;100,33;-22,60;-6,27;-5,38;100,45;98,20;13,67;35,42;-6,39;32,73;651540
IF_LD_R4_8502001_JAM2_-55, SUBCASE 1, Case 1 Time 1.;89;-0,90;-2,22;-22,54;-6,26;-5,40;10,12;27,11;67,91;99,75;22,55;4,62;2,53;99,86;97,66;67,91;99,75;22,55;-6,26;-5,40;99,86;97,66;13,69;35,39;-6,36;32,55;651540
IF_CR_R1_8501009_DIS1_82, SUBCASE 1, Case 1 Time 1.;39;-1,08;-3,17;-23,57;-6,68;-5,56;10,30;23,48;68,59;99,34;23,55;4,94;2,56;99,51;96,83;68,59;99,34;-23,57;-6,68;-5,56;99,51;96,83;13,34;34,88;-6,68;32,28;651540
IF_CR_R1_8501009_DIS1_23, SUBCASE 1, Case 1 Time 1.;37;-1,09;-3,14;-23,61;-6,71;-5,60;10,30;23,37;68,61;99,10;23,61;4,95;2,57;99,26;96,60;68,61;99,10;-23,61;-6,71;-5,60;99,26;96,60;13,10;34,20;-6,52;32,20;651540
IF_CR_R1_8501009_DIS1_-55, SUBCASE 1, Case 1 Time 1.;38;-1,09;-3,11;-23,66;-6,74;-5,64;10,30;23,22;68,65;98,80;23,69;4,95;2,59;98,96;96,32;68,65;98,80;23,69;-6,74;-5,64;98,96;96,32;13,34;34,74;-6,63;32,11;651540
IF_IP2_R4_8502005_JAM2M_OUT_82, SUBCASE 1, Case 1 Time 1.;117;-1,08;-3,18;-23,40;-6,65;-5,53;10,38;23,13;68,06;98,31;23,38;4,87;2,53;98,48;95,79;68,06;98,31;-23,40;-6,65;-5,53;98,48;95,79;13,26;34,59;-6,63;31,93;651540
IF_IP2_R4_8502005_JAM2M_OUT_23, SUBCASE 1, Case 1 Time 1.;115;-1,08;-3,13;-23,42;-6,67;-5,55;10,37;23,17;68,09;98,14;23,42;4,87;2,54;98,30;95,64;68,09;98,14;23,42;-6,67;-5,55;98,30;95,64;13,56;35,31;-6,69;31,88;651540
IF_IP2_R4_8502005_JAM2M_OUT_-55, SUBCASE 1, Case 1 Time 1.;116;-1,08;-3,07;-23,45;-6,70;-5,60;10,36;23,23;68,15;97,96;23,48;4,87;2,56;98,12;95,49;68,15;97,96;23,48;-6,70;-5,60;98,12;95,49;13,31;34,58;-6,59;31,83;651540
IF_LD_R2_8502001_FS11_82, SUBCASE 1, Case 1 Time 1.;33;-0,51;-2,73;-17,29;-3,27;-3,42;7,02;28,31;54,59;92,10;14,21;3,11;1,87;92,14;90,95;54,59;92,10;-17,29;-3,27;-3,42;92,14;90,95;11,95;32,41;-5,01;30,32;651540
IF_LD_R2_8502001_FS11_23, SUBCASE 1, Case 1 Time 1.;31;-0,50;-2,74;-17,25;-3,28;-3,45;7,00;28,22;54,56;91,85;14,23;3,11;1,87;91,88;90,71;54,56;91,85;-17,25;-3,28;-3,45;91,88;90,71;11,65;31,54;-4,87;30,24;651540
IF_TO_R4_8502005_JAM2M_OUT_82, SUBCASE 1, Case 1 Time 1.;123;-0,98;-2,86;-21,94;-6,20;-5,17;9,78;22,51;64,13;93,00;21,90;4,53;2,36;93,15;90,65;64,13;93,00;-21,94;-6,20;-5,17;93,15;90,65;12,55;32,75;-6,23;30,22;651540
IF_TO_R4_8502005_JAM2M_OUT_23, SUBCASE 1, Case 1 Time 1.;121;-0,98;-2,81;-21,96;-6,22;-5,20;9,77;22,55;64,16;92,83;21,94;4,53;2,37;92,98;90,50;64,16;92,83;-21,96;-6,22;-5,20;92,98;90,50;12,82;33,38;-6,28;30,17;651540
IF_LD_R2_8502001_FS11_-55, SUBCASE 1, Case 1 Time 1.;32;-0,50;-2,75;-17,20;-3,29;-3,48;6,98;28,11;54,53;91,54;14,28;3,10;1,89;91,58;90,43;54,53;91,54;-17,20;-3,29;-3,48;91,58;90,43;11,93;32,25;-4,96;30,14;651540
IF_TO_R4_8502005_JAM2M_OUT_-55, SUBCASE 1, Case 1 Time 1.;122;-0,98;-2,74;-21,98;-6,24;-5,24;9,76;22,60;64,21;92,63;22,00;4,53;2,39;92,78;90,34;64,21;92,63;22,00;-6,24;-5,24;92,78;90,34;12,59;32,72;-6,18;30,11;651540
IF_LD_R2_8502001_JAM2_82, SUBCASE 1, Case 1 Time 1.;87;-0,77;-1,97;-20,22;-5,55;-4,77;9,11;24,96;61,43;91,23;20,13;4,13;2,22;91,34;89,27;61,43;91,23;-20,22;-5,55;-4,77;91,34;89,27;12,36;32,25;-5,82;29,76;651540
IF_LD_R2_8502001_JAM2_23, SUBCASE 1, Case 1 Time 1.;85;-0,76;-1,92;-20,19;-5,55;-4,79;9,08;24,86;61,28;90,81;20,11;4,12;2,23;90,91;88,87;61,28;90,81;-20,19;-5,55;-4,79;90,91;88,87;12,46;32,46;-5,84;29,62;651540
IF_LD_R2_8502001_JAM2_-55, SUBCASE 1, Case 1 Time 1.;86;-0,76;-1,85;-20,15;-5,55;-4,81;9,03;24,73;61,10;90,28;20,10;4,10;2,23;90,38;88,38;61,10;90,28;-20,15;-5,55;-4,81;90,38;88,38;12,32;32,02;-5,75;29,46;651540
IF_IP1_R1_8502005_JAM2_-55, SUBCASE 1, Case 1 Time 1.;77;-0,73;-1,97;-17,79;-4,97;-4,23;7,79;19,83;52,93;77,48;17,70;3,65;1,89;77,59;75,62;52,93;77,48;-17,79;-4,97;-4,23;77,59;75,62;10,39;27,32;-5,11;25,21;651540
IF_IP1_R1_8502005_JAM2_23, SUBCASE 1, Case 1 Time 1.;76;-0,72;-2,02;-17,64;-4,91;-4,16;7,76;19,69;52,55;77,22;17,53;3,62;1,87;77,34;75,34;52,55;77,22;-17,64;-4,91;-4,16;77,34;75,34;10,72;28,19;-5,29;25,11;651540
IF_IP1_R1_8502005_JAM2_82, SUBCASE 1, Case 1 Time 1.;78;-0,72;-2,05;-17,53;-4,87;-4,11;7,73;19,60;52,28;77,04;17,39;3,60;1,85;77,16;75,15;52,28;77,04;-17,53;-4,87;-4,11;77,16;75,15;10,24;27,06;-5,09;25,05;651540
IF_LD_R2_8502001_DIS3_82, SUBCASE 1, Case 1 Time 1.;69;-0,59;-1,31;-16,42;-4,40;-3,84;7,34;21,37;50,77;76,68;16,23;3,31;1,77;76,76;75,06;50,77;76,68;-16,42;-4,40;-3,84;76,76;75,06;10,24;27,02;-4,83;25,02;651540
IF_LD_R2_8502001_DIS3_23, SUBCASE 1, Case 1 Time 1.;67;-0,59;-1,28;-16,44;-4,42;-3,87;7,33;21,28;50,73;76,36;16,27;3,31;1,78;76,44;74,76;50,73;76,36;-16,44;-4,42;-3,87;76,44;74,76;10,44;27,44;-4,90;24,92;651540
IF_LD_R2_8502001_DIS3_-55, SUBCASE 1, Case 1 Time 1.;68;-0,58;-1,23;-16,47;-4,44;-3,90;7,31;21,16;50,68;75,95;16,33;3,31;1,79;76,03;74,38;50,68;75,95;-16,47;-4,44;-3,90;76,03;74,38;10,24;26,86;-4,78;24,79;651540
IF_IP1_R1_8502005_82, SUBCASE 1, Case 1 Time 1.;6;-0,71;-2,10;-16,76;-4,69;-3,92;7,40;17,45;49,53;72,57;16,64;3,45;1,74;72,69;70,70;49,53;72,57;-16,76;-4,69;-3,92;72,69;70,70;9,62;25,45;-4,86;23,57;651540
IF_IP1_R1_8502005_23, SUBCASE 1, Case 1 Time 1.;4;-0,72;-2,07;-16,79;-4,72;-3,96;7,40;17,33;49,53;72,29;16,69;3,45;1,75;72,41;70,44;49,53;72,29;-16,79;-4,72;-3,96;72,41;70,44;10,04;26,44;-5,04;23,48;651540
IF_IP1_R1_8502005_-55, SUBCASE 1, Case 1 Time 1.;5;-0,72;-2,03;-16,84;-4,75;-4,00;7,39;17,17;49,53;71,94;16,77;3,45;1,76;72,06;70,11;49,53;71,94;-16,84;-4,75;-4,00;72,06;70,11;9,64;25,35;-4,83;23,37;651540
IF_LD_R2_8502001_DIS1_INSF_-55, SUBCASE 1, Case 1 Time 1.;50;-0,50;-1,00;-14,24;-3,82;-3,37;6,35;18,46;43,95;66,11;14,10;2,85;1,53;66,18;64,73;43,95;66,11;-14,24;-3,82;-3,37;66,18;64,73;8,87;23,31;-4,15;21,58;651540
IF_LD_R2_8502001_DIS1_INSF_82, SUBCASE 1, Case 1 Time 1.;51;-0,50;-1,05;-13,96;-3,70;-3,24;6,28;18,37;43,31;65,78;13,76;2,80;1,49;65,85;64,38;43,31;65,78;-13,96;-3,70;-3,24;65,85;64,38;8,76;23,17;-4,14;21,46;651540
IF_LD_R2_8502001_DIS1_INSF_23, SUBCASE 1, Case 1 Time 1.;49;-0,50;-1,03;-14,04;-3,74;-3,29;6,30;18,37;43,48;65,76;13,87;2,81;1,50;65,83;64,38;43,48;65,76;-14,04;-3,74;-3,29;65,83;64,38;8,59;22,65;-4,04;21,46;651540
IF_LD_R4_8502001_FS11_82, SUBCASE 1, Case 1 Time 1.;36;-0,34;-1,07;-10,82;-2,35;-2,29;4,68;16,98;34,37;56,23;9,67;2,04;1,14;56,27;55,31;34,37;56,23;-10,82;-2,35;-2,29;56,27;55,31;7,34;19,74;-3,23;18,44;651540
IF_LD_R4_8502001_FS11_23, SUBCASE 1, Case 1 Time 1.;34;-0,34;-1,07;-10,77;-2,36;-2,31;4,66;16,92;34,33;55,96;9,69;2,04;1,15;56,00;55,05;34,33;55,96;-10,77;-2,36;-2,31;56,00;55,05;7,53;20,21;-3,29;18,35;651540
IF_LD_R4_8502001_FS11_-55, SUBCASE 1, Case 1 Time 1.;35;-0,33;-1,09;-10,72;-2,37;-2,35;4,64;16,85;34,29;55,64;9,74;2,04;1,17;55,67;54,76;34,29;55,64;-10,72;-2,37;-2,35;55,67;54,76;7,34;19,63;-3,19;18,25;651540
IF_IP1_R1_8502005_DIS3_82, SUBCASE 1, Case 1 Time 1.;60;-0,44;-1,33;-11,43;-3,15;-2,65;5,08;12,55;34,23;50,81;11,28;2,32;1,15;50,90;49,49;34,23;50,81;-11,43;-3,15;-2,65;50,90;49,49;6,66;17,78;-3,38;16,50;651540
IF_IP1_R1_8502005_DIS3_23, SUBCASE 1, Case 1 Time 1.;58;-0,45;-1,30;-11,46;-3,17;-2,68;5,07;12,40;34,20;50,49;11,33;2,32;1,16;50,58;49,19;34,20;50,49;-11,46;-3,17;-2,68;50,58;49,19;6,94;18,46;-3,51;16,40;651540
IF_IP1_R1_8502005_DIS3_-55, SUBCASE 1, Case 1 Time 1.;59;-0,45;-1,26;-11,50;-3,20;-2,72;5,06;12,21;34,17;50,08;11,39;2,32;1,17;50,17;48,81;34,17;50,08;-11,50;-3,20;-2,72;50,17;48,81;6,65;17,63;-3,34;16,27;651540
IF_IP1_R1_8502005_DIS1_82, SUBCASE 1, Case 1 Time 1.;42;-0,43;-1,30;-11,18;-3,07;-2,59;4,95;12,27;33,43;49,69;11,02;2,28;1,12;49,77;48,40;33,43;49,69;-11,18;-3,07;-2,59;49,77;48,40;6,50;17,37;-3,31;16,13;651540
IF_IP1_R1_8502005_DIS1_23, SUBCASE 1, Case 1 Time 1.;40;-0,44;-1,27;-11,21;-3,10;-2,62;4,95;12,12;33,43;49,40;11,08;2,28;1,13;49,48;48,12;33,43;49,40;-11,21;-3,10;-2,62;49,48;48,12;6,78;18,03;-3,43;16,04;651540
IF_IP1_R1_8502005_DIS1_-55, SUBCASE 1, Case 1 Time 1.;41;-0,44;-1,23;-11,26;-3,13;-2,66;4,94;11,94;33,42;49,03;11,16;2,28;1,15;49,11;47,78;33,42;49,03;-11,26;-3,13;-2,66;49,11;47,78;6,50;17,24;-3,27;15,93;651540
IF_LD_R4_8502001_DIS1_INSF_82, SUBCASE 1, Case 1 Time 1.;54;-0,34;-0,77;-9,51;-2,51;-2,19;4,39;12,35;29,36;44,65;9,35;1,90;0,98;44,70;43,64;29,36;44,65;-9,51;-2,51;-2,19;44,70;43,64;5,95;15,72;-2,83;14,55;651540
IF_LD_R4_8502001_DIS1_INSF_23, SUBCASE 1, Case 1 Time 1.;52;-0,34;-0,74;-9,53;-2,53;-2,22;4,38;12,25;29,31;44,30;9,40;1,90;0,99;44,35;43,31;29,31;44,30;-9,53;-2,53;-2,22;44,35;43,31;6,05;15,95;-2,86;14,44;651540
IF_LD_R4_8502001_DIS1_INSF_-55, SUBCASE 1, Case 1 Time 1.;53;-0,33;-0,70;-9,56;-2,56;-2,25;4,37;12,13;29,27;43,88;9,46;1,90;1,01;43,93;42,91;29,27;43,88;-9,56;-2,56;-2,25;43,93;42,91;5,93;15,53;-2,78;14,30;651540
IF_IP1_R1_8502005_JAM2M_OUT_-55, SUBCASE 1, Case 1 Time 1.;110;-0,74;-2,54;-11,25;-3,81;-2,66;2,42;5,20;29,54;38,97;11,29;2,35;1,08;39,15;37,38;29,54;38,97;11,29;-3,81;-2,66;39,15;37,38;5,08;13,54;-3,12;12,46;651540
IF_IP1_R1_8502005_JAM2M_OUT_23, SUBCASE 1, Case 1 Time 1.;109;-0,74;-2,59;-11,14;-3,81;-2,60;2,44;5,20;29,26;38,83;11,15;2,33;1,08;39,02;37,23;29,26;38,83;11,15;-3,81;-2,60;39,02;37,23;4,80;12,87;-2,99;12,41;651540
IF_IP1_R1_8502005_JAM2M_OUT_82, SUBCASE 1, Case 1 Time 1.;111;-0,73;-2,63;-11,05;-3,80;-2,56;2,45;5,20;29,06;38,76;11,04;2,32;1,07;38,95;37,13;29,06;38,76;-11,05;-3,80;-2,56;38,95;37,13;4,99;13,43;-3,13;12,38;651540
IF_TO_R4_8502005_FS11_82, SUBCASE 1, Case 1 Time 1.;30;-0,25;-0,32;-7,26;-1,77;-1,62;3,34;10,50;23,10;36,59;6,89;1,45;0,76;36,62;35,83;23,10;36,59;-7,26;-1,77;-1,62;36,62;35,83;4,80;12,85;-2,22;11,94;651540
IF_TO_R4_8502005_FS11_23, SUBCASE 1, Case 1 Time 1.;28;-0,25;-0,28;-7,16;-1,77;-1,63;3,30;10,33;22,89;36,00;6,88;1,44;0,76;36,04;35,27;22,89;36,00;-7,16;-1,77;-1,63;36,04;35,27;4,74;12,64;-2,18;11,76;651540
IF_TO_R4_8502005_FS11_-55, SUBCASE 1, Case 1 Time 1.;29;-0,24;-0,25;-7,03;-1,78;-1,65;3,25;10,12;22,63;35,27;6,87;1,42;0,77;35,31;34,57;22,63;35,27;-7,03;-1,78;-1,65;35,31;34,57;4,71;12,47;-2,14;11,52;651540
IF_IP2_R4_8502005_FS11_82, SUBCASE 1, Case 1 Time 1.;27;-0,24;-0,42;-6,63;-1,66;-1,49;3,08;9,36;21,01;32,92;6,34;1,35;0,68;32,96;32,19;21,01;32,92;-6,63;-1,66;-1,49;32,96;32,19;4,32;11,56;-2,03;10,73;651540
IF_IP2_R4_8502005_FS11_23, SUBCASE 1, Case 1 Time 1.;25;-0,23;-0,38;-6,51;-1,66;-1,50;3,04;9,15;20,73;32,21;6,32;1,34;0,68;32,24;31,50;20,73;32,21;-6,51;-1,66;-1,50;32,24;31,50;4,05;10,80;-1,90;10,50;651540
IF_IP2_R4_8502005_FS11_-55, SUBCASE 1, Case 1 Time 1.;26;-0,23;-0,33;-6,41;-1,67;-1,52;2,98;8,88;20,38;31,30;6,29;1,31;0,69;31,34;30,63;20,38;31,30;-6,41;-1,67;-1,52;31,34;30,63;4,18;11,07;-1,93;10,21;651540
IF_TO_R4_8502005_DIS1_82, SUBCASE 1, Case 1 Time 1.;48;-0,23;-0,55;-6,18;-1,63;-1,42;2,92;8,13;19,21;29,40;6,06;1,26;0,63;29,44;28,69;19,21;29,40;-6,18;-1,63;-1,42;29,44;28,69;3,90;10,34;-1,87;9,56;651540
IF_TO_R4_8502005_DIS1_23, SUBCASE 1, Case 1 Time 1.;46;-0,22;-0,52;-6,20;-1,65;-1,44;2,91;8,01;19,14;29,00;6,10;1,26;0,64;29,04;28,32;19,14;29,00;-6,20;-1,65;-1,44;29,04;28,32;3,87;10,21;-1,84;9,44;651540
IF_TO_R4_8502005_DIS1_-55, SUBCASE 1, Case 1 Time 1.;47;-0,22;-0,48;-6,23;-1,67;-1,48;2,89;7,87;19,07;28,52;6,16;1,26;0,65;28,56;27,86;19,07;28,52;-6,23;-1,67;-1,48;28,56;27,86;3,86;10,11;-1,82;9,29;651540
IF_IP2_R4_8502005_DIS1_82, SUBCASE 1, Case 1 Time 1.;45;-0,21;-0,51;-5,55;-1,46;-1,27;2,63;7,43;17,38;26,69;5,42;1,15;0,56;26,72;26,04;17,38;26,69;-5,55;-1,46;-1,27;26,72;26,04;3,52;9,39;-1,70;8,68;651540
IF_IP2_R4_8502005_DIS1_23, SUBCASE 1, Case 1 Time 1.;43;-0,21;-0,49;-5,59;-1,49;-1,30;2,63;7,35;17,40;26,43;5,49;1,16;0,57;26,46;25,79;17,40;26,43;-5,59;-1,49;-1,30;26,46;25,79;3,64;9,67;-1,75;8,60;651540
IF_IP2_R4_8502005_DIS1_-55, SUBCASE 1, Case 1 Time 1.;44;-0,20;-0,45;-5,66;-1,53;-1,35;2,63;7,25;17,44;26,12;5,59;1,16;0,59;26,16;25,51;17,44;26,12;-5,66;-1,53;-1,35;26,16;25,51;3,53;9,27;-1,67;8,50;651540
IF_CR_R1_8501009_FS11_-55, SUBCASE 1, Case 1 Time 1.;20;-7,25;-5,21;-1,67;-1,30;-0,47;0,18;1,24;5,16;3,24;1,91;0,61;0,31;7,45;8,35;-7,25;-5,21;1,91;-1,30;-0,47;7,45;8,35;-0,05;-0,46;-0,29;2,78;651541
IF_IP1_R1_8502005_FS11_-55, SUBCASE 1, Case 1 Time 1.;23;-6,88;-8,20;-1,10;-0,43;-0,15;0,25;0,55;1,60;1,54;0,96;0,13;0,07;8,20;8,29;-6,88;-8,20;-1,10;-0,43;-0,15;8,20;8,29;-0,91;-2,67;0,27;2,76;651540
IF_CR_R1_8501009_FS11_23, SUBCASE 1, Case 1 Time 1.;19;-6,82;-4,56;-1,74;-1,32;-0,46;0,52;1,28;5,05;3,24;1,94;0,62;0,31;7,02;7,90;-6,82;-4,56;1,94;-1,32;-0,46;7,02;7,90;0,61;1,36;-0,60;2,63;651541
IF_CR_R1_8501009_FS11_82, SUBCASE 1, Case 1 Time 1.;21;-6,48;-4,06;-1,82;-1,33;-0,45;0,26;0,55;4,97;3,24;1,97;0,62;0,32;6,69;7,55;-6,48;-4,06;1,97;-1,33;-0,45;6,69;7,55;0,07;0,01;-0,38;2,52;651541
IF_IP1_R1_8502005_FS11_23, SUBCASE 1, Case 1 Time 1.;22;-6,37;-7,24;-1,06;-0,45;-0,14;0,24;0,50;1,69;1,55;0,80;0,14;0,09;7,24;7,36;-6,37;-7,24;-1,06;-0,45;-0,14;7,24;7,36;-0,80;-2,29;0,19;2,45;651540
IF_IP1_R1_8502005_FS11_82, SUBCASE 1, Case 1 Time 1.;24;-5,98;-6,48;-1,02;-0,46;-0,14;0,21;0,34;1,76;1,56;0,69;0,15;0,11;6,48;6,63;-5,98;-6,48;-1,02;-0,46;-0,14;6,48;6,63;-0,78;-2,17;0,17;2,21;651540
IF_LD_JAM2M_IN_-55, SUBCASE 1, Case 1 Time 1.;107;-3,08;-5,81;-0,93;-0,17;-0,07;0,42;1,29;0,17;0,11;1,15;0,17;0,14;5,82;5,67;-3,08;-5,81;1,15;0,17;0,14;5,82;5,67;-0,64;-1,98;0,35;1,89;651540
IF_IP2_JAM2M_IN_82, SUBCASE 1, Case 1 Time 1.;96;-0,03;-0,06;-1,13;-0,25;-0,22;0,45;1,48;3,35;5,41;1,09;0,21;0,11;5,42;5,31;3,35;5,41;-1,13;-0,25;-0,22;5,42;5,31;0,69;1,82;-0,32;1,77;651540
IF_IP2_JAM2M_IN_23, SUBCASE 1, Case 1 Time 1.;94;-0,03;-0,04;-1,09;-0,26;-0,24;0,41;1,27;3,09;4,72;1,08;0,20;0,12;4,73;4,64;3,09;4,72;-1,09;-0,26;-0,24;4,73;4,64;0,61;1,55;-0,27;1,55;651540
IF_LD_JAM2M_IN_23, SUBCASE 1, Case 1 Time 1.;106;-2,58;-4,62;-0,76;-0,14;-0,06;0,35;1,31;0,12;0,08;0,94;0,15;0,15;4,63;4,52;-2,58;-4,62;0,94;0,15;0,15;4,63;4,52;-0,52;-1,55;0,27;1,51;651540
IF_IP2_JAM2M_IN_-55, SUBCASE 1, Case 1 Time 1.;95;-0,02;-0,02;-1,06;-0,27;-0,26;0,36;0,99;2,77;3,84;1,08;0,18;0,12;3,84;3,79;2,77;3,84;1,08;-0,27;-0,26;3,84;3,79;0,57;1,35;-0,23;1,26;651540
IF_LD_JAM2M_IN_82, SUBCASE 1, Case 1 Time 1.;108;-2,19;-3,70;-0,63;-0,12;-0,06;0,29;1,20;0,08;0,05;0,78;0,14;0,16;3,70;3,62;-2,19;-3,70;0,78;0,14;0,16;3,70;3,62;-0,46;-1,34;0,23;1,21;651540
IF_TO_JAM2M_IN_82, SUBCASE 1, Case 1 Time 1.;102;-0,02;-0,04;-0,69;-0,14;-0,12;0,26;0,82;1,93;3,13;0,67;0,12;0,07;3,13;3,07;1,93;3,13;-0,69;-0,14;-0,12;3,13;3,07;0,40;1,02;-0,19;1,02;651540
IF_TO_JAM2M_IN_23, SUBCASE 1, Case 1 Time 1.;100;-0,01;-0,02;-0,64;-0,15;-0,13;0,21;0,60;1,65;2,40;0,65;0,11;0,07;2,40;2,36;1,65;2,40;0,65;-0,15;-0,13;2,40;2,36;0,33;0,79;-0,14;0,79;651540
IF_TO_JAM2M_OUT_-55, SUBCASE 1, Case 1 Time 1.;104;-1,47;-2,17;-0,59;-0,11;-0,05;0,22;0,35;0,02;0,10;0,60;0,14;0,10;2,18;2,11;-1,47;-2,17;0,60;0,14;0,10;2,18;2,11;-0,27;-0,70;0,15;0,70;651540
IF_TO_JAM2M_IN_-55, SUBCASE 1, Case 1 Time 1.;101;-0,01;0,00;-0,60;-0,16;-0,15;0,16;0,31;1,30;1,46;0,64;0,09;0,08;1,46;1,65;1,30;1,46;0,64;-0,16;-0,15;1,46;1,65;0,27;0,53;-0,09;0,55;651540
IF_IP1_JAM2M_OUT_82, SUBCASE 1, Case 1 Time 1.;93;-1,08;-0,65;-0,55;-0,07;-0,06;0,04;0,14;0,60;0,60;0,48;0,15;0,12;1,08;1,46;-1,08;-0,65;-0,55;0,15;0,12;1,08;1,46;-0,09;-0,03;0,02;0,49;651540
IF_TO_JAM2M_OUT_82, SUBCASE 1, Case 1 Time 1.;105;-1,08;-0,69;-0,53;-0,07;-0,06;0,01;0,11;0,30;0,19;0,48;0,15;0,12;1,08;1,44;-1,08;-0,69;-0,53;0,15;0,12;1,08;1,44;-0,14;-0,21;0,05;0,48;651540
IF_TO_JAM2M_OUT_23, SUBCASE 1, Case 1 Time 1.;103;-1,09;-1,23;-0,56;-0,09;-0,06;0,08;0,18;0,04;0,05;0,53;0,14;0,11;1,23;1,41;-1,09;-1,23;-0,56;0,14;0,11;1,23;1,41;-0,17;-0,36;0,08;0,47;651540
IF_IP1_JAM2M_OUT_23, SUBCASE 1, Case 1 Time 1.;91;-0,93;-0,67;-0,54;-0,08;-0,06;0,01;0,12;0,32;0,23;0,50;0,13;0,10;0,94;1,32;-0,93;-0,67;-0,54;0,13;0,10;0,94;1,32;0,45;1,31;-0,21;0,44;651540
IF_IP1_JAM2M_OUT_-55, SUBCASE 1, Case 1 Time 1.;92;-0,99;-1,33;-0,52;-0,09;-0,05;0,07;0,17;0,02;0,09;0,51;0,12;0,07;1,34;1,30;-0,99;-1,33;-0,52;0,12;0,07;1,34;1,30;-0,15;-0,33;0,09;0,43;651540
IF_IP2_JAM2M_OUT_82, SUBCASE 1, Case 1 Time 1.;99;-0,35;-0,18;-0,21;-0,03;-0,03;0,07;0,20;0,56;0,93;0,19;0,04;0,04;0,93;0,95;0,56;0,93;-0,21;0,04;0,04;0,93;0,95;0,03;0,25;-0,05;0,32;651546
IF_IP2_JAM2M_OUT_-55, SUBCASE 1, Case 1 Time 1.;98;-0,54;-0,93;-0,25;-0,04;-0,02;0,07;0,17;0,01;0,04;0,26;0,04;0,03;0,93;0,92;-0,54;-0,93;0,26;-0,04;0,03;0,93;0,92;-0,11;-0,26;0,06;0,31;651540
IF_IP2_JAM2M_OUT_23, SUBCASE 1, Case 1 Time 1.;97;-0,31;-0,21;-0,20;-0,02;-0,02;0,03;0,09;0,21;0,32;0,18;0,04;0,03;0,32;0,46;-0,31;0,32;-0,20;0,04;0,03;0,32;0,46;0,00;0,11;-0,02;0,15;651540
Ref CID;Coord Material;;;;;;;;;;;;;;;;;;;;;;;;;;
