LC_Name;LC_ID;qxMin;qyMin;qxyMin;qxzMin;qyzMin;qshearMin;qvonmisesMin;qxMax;qyMax;qxyMax;qxzMax;qyzMax;qshearMax;qvonmisesMax;qxAbsMax;qyAbsMax;qxyAbsMax;qxzAbsMax;qyzAbsMax;qshearAbsMax;qvonmisesAbsMax;qxAverage;qyAverage;qxyAverage;sigmaVonMisesMax;CriticalElemID
IF_CR_R1_8501009_JAM2_-55, SUBCASE 1, Case 1 Time 1.;74;-67,57;-41,52;-33,08;-12,30;-5,03;0,94;11,93;45,10;34,53;28,31;16,15;11,19;67,59;69,01;-67,57;-41,52;-33,08;16,15;11,19;67,59;69,01;-13,91;1,90;0,31;9,86;653907
IF_CR_R1_8501009_JAM2_23, SUBCASE 1, Case 1 Time 1.;73;-66,77;-41,00;-30,49;-12,36;-5,02;3,38;14,37;45,90;35,38;27,62;16,10;11,13;66,79;68,24;-66,77;-41,00;-30,49;16,10;11,13;66,79;68,24;-14,63;1,40;0,62;9,75;653907
IF_CR_R1_8501009_JAM2_82, SUBCASE 1, Case 1 Time 1.;75;-66,16;-40,61;-31,96;-12,42;-5,01;3,66;16,37;46,50;36,02;27,47;16,08;11,09;66,18;67,65;-66,16;-40,61;-31,96;16,08;11,09;66,18;67,65;-15,25;1,13;0,84;9,66;653907
IF_CR_R1_8501009_-55, SUBCASE 1, Case 1 Time 1.;2;-65,59;-40,07;-32,41;-12,20;-4,92;1,19;10,92;46,46;35,88;27,90;15,99;11,07;65,61;67,03;-65,59;-40,07;-32,41;15,99;11,07;65,61;67,03;-13,02;2,59;0,23;9,58;653907
IF_CR_R1_8501009_23, SUBCASE 1, Case 1 Time 1.;1;-65,04;-39,73;-30,12;-12,28;-4,92;4,40;14,60;47,08;36,56;27,03;15,96;11,04;65,06;66,51;-65,04;-39,73;-30,12;15,96;11,04;65,06;66,51;-14,06;2,05;0,53;9,50;653907
IF_CR_R1_8501009_82, SUBCASE 1, Case 1 Time 1.;3;-64,61;-39,48;-31,64;-12,34;-4,93;4,20;16,45;47,55;37,07;26,94;15,94;11,01;64,63;66,11;-64,61;-39,48;-31,64;15,94;11,01;64,63;66,11;-14,55;1,67;0,77;9,44;653907
IF_IP2_R4_8502005_JAM2M_IN_-55, SUBCASE 1, Case 1 Time 1.;113;-59,88;-38,98;-26,76;-7,07;-3,85;1,78;8,82;10,98;8,56;24,44;10,66;6,89;59,88;60,83;-59,88;-38,98;-26,76;10,66;6,89;59,88;60,83;-16,88;-5,92;0,92;8,69;653907
IF_IP2_R4_8502005_JAM2M_IN_23, SUBCASE 1, Case 1 Time 1.;112;-59,33;-38,63;-24,05;-7,17;-3,85;1,32;8,86;11,81;5,91;24,02;10,62;6,86;59,33;60,31;-59,33;-38,63;-24,05;10,62;6,86;59,33;60,31;-17,48;-6,22;1,21;8,62;653907
IF_IP2_R4_8502005_JAM2M_IN_82, SUBCASE 1, Case 1 Time 1.;114;-58,91;-38,36;-22,85;-7,25;-3,86;1,21;8,95;12,44;6,56;23,70;10,59;6,85;58,92;59,91;-58,91;-38,36;23,70;10,59;6,85;58,92;59,91;-18,36;-6,74;1,46;8,56;653907
IF_TO_R4_8502005_JAM2M_IN_INSF_-55, SUBCASE 1, Case 1 Time 1.;119;-54,71;-36,09;-24,49;-6,89;-3,59;2,03;8,10;8,51;8,52;22,56;10,13;6,68;54,71;55,58;-54,71;-36,09;-24,49;10,13;6,68;54,71;55,58;-15,79;-5,98;0,89;7,94;653907
IF_TO_R4_8502005_JAM2M_IN_INSF_23, SUBCASE 1, Case 1 Time 1.;118;-54,32;-35,86;-21,83;-6,98;-3,60;2,19;8,12;9,19;3,85;22,20;10,09;6,65;54,33;55,22;-54,32;-35,86;22,20;10,09;6,65;54,33;55,22;-16,59;-6,38;1,20;7,89;653907
IF_TO_R4_8502005_JAM2M_IN_INSF_82, SUBCASE 1, Case 1 Time 1.;120;-54,02;-35,67;-20,74;-7,05;-3,61;2,10;8,15;9,71;4,40;21,93;10,06;6,63;54,03;54,94;-54,02;-35,67;21,93;10,06;6,63;54,03;54,94;-17,39;-6,91;1,44;7,85;653907
IF_IP2_R4_8502005_DIS3_-55, SUBCASE 1, Case 1 Time 1.;62;-53,23;-33,00;-25,75;-8,55;-3,75;0,81;7,37;28,97;21,45;22,08;11,66;7,93;53,24;54,22;-53,23;-33,00;-25,75;11,66;7,93;53,24;54,22;-11,70;-0,02;0,31;7,75;653907
IF_IP2_R4_8502005_DIS3_23, SUBCASE 1, Case 1 Time 1.;61;-52,78;-32,72;-23,06;-8,63;-3,76;1,77;10,40;29,65;22,18;21,15;11,61;7,89;52,79;53,79;-52,78;-32,72;-23,06;11,61;7,89;52,79;53,79;-12,47;-0,54;0,62;7,68;653907
IF_IP2_R4_8502005_DIS3_82, SUBCASE 1, Case 1 Time 1.;63;-52,42;-32,50;-24,07;-8,69;-3,76;1,78;11,44;30,16;22,72;21,39;11,56;7,85;52,43;53,46;-52,42;-32,50;-24,07;11,56;7,85;52,43;53,46;-13,26;-0,93;0,86;7,64;653907
IF_IP2_R4_8502005_JAM2_-55, SUBCASE 1, Case 1 Time 1.;80;-51,50;-32,03;-24,32;-6,74;-3,36;1,93;7,10;21,63;15,25;20,69;9,83;6,42;51,50;52,32;-51,50;-32,03;-24,32;9,83;6,42;51,50;52,32;-12,10;-1,46;0,40;7,47;653907
IF_IP2_R4_8502005_JAM2_23, SUBCASE 1, Case 1 Time 1.;79;-50,98;-31,71;-21,62;-6,85;-3,37;2,03;8,20;22,50;16,14;19,98;9,80;6,40;50,99;51,83;-50,98;-31,71;-21,62;9,80;6,40;50,99;51,83;-12,88;-1,90;0,71;7,40;653907
IF_IP2_R4_8502005_JAM2_82, SUBCASE 1, Case 1 Time 1.;81;-50,59;-31,46;-22,00;-6,93;-3,38;2,11;9,04;23,15;16,81;20,20;9,78;6,39;50,59;51,46;-50,59;-31,46;-22,00;9,78;6,39;50,59;51,46;-13,59;-2,28;0,94;7,35;653907
IF_LD_R4_8502001_JAM2M_INSF_-55, SUBCASE 1, Case 1 Time 1.;128;-47,73;-32,43;-21,49;-6,45;-3,26;1,83;6,96;8,22;8,62;20,25;9,26;6,24;47,73;50,07;-47,73;-32,43;-21,49;9,26;6,24;47,73;50,07;-14,70;-6,71;0,91;7,15;654092
IF_TO_R4_8502005_DIS3_-55, SUBCASE 1, Case 1 Time 1.;65;-48,73;-30,51;-23,54;-7,85;-3,42;0,96;6,56;24,93;18,21;20,21;10,68;7,30;48,74;49,62;-48,73;-30,51;-23,54;10,68;7,30;48,74;49,62;-10,97;-0,47;0,31;7,09;653907
IF_TO_R4_8502005_DIS3_23, SUBCASE 1, Case 1 Time 1.;64;-48,25;-30,20;-20,84;-7,91;-3,42;1,14;9,17;25,60;18,92;19,17;10,61;7,24;48,26;49,16;-48,25;-30,20;-20,84;10,61;7,24;48,26;49,16;-11,88;-0,99;0,63;7,02;653907
IF_IP2_R4_8502005_-55, SUBCASE 1, Case 1 Time 1.;8;-48,30;-29,81;-23,33;-7,05;-3,26;0,86;6,22;24,74;18,20;20,12;9,92;6,62;48,31;49,12;-48,30;-29,81;-23,33;9,92;6,62;48,31;49,12;-10,62;-0,21;0,26;7,02;653907
IF_LD_R4_8502001_JAM2M_INSF_23, SUBCASE 1, Case 1 Time 1.;127;-48,10;-32,76;-19,02;-6,53;-3,29;1,58;6,89;2,87;3,14;20,19;9,26;6,22;48,11;48,92;-48,10;-32,76;20,19;9,26;6,22;48,11;48,92;-15,94;-7,48;1,26;6,99;653907
IF_TO_R4_8502005_DIS3_82, SUBCASE 1, Case 1 Time 1.;66;-47,88;-29,97;-21,73;-7,96;-3,43;1,25;9,90;26,11;19,47;19,61;10,56;7,20;47,89;48,82;-47,88;-29,97;-21,73;10,56;7,20;47,89;48,82;-12,51;-1,37;0,86;6,97;653907
IF_IP2_R4_8502005_23, SUBCASE 1, Case 1 Time 1.;7;-47,93;-29,58;-20,68;-7,15;-3,27;1,28;9,03;25,47;18,96;18,93;9,89;6,60;47,94;48,78;-47,93;-29,58;-20,68;9,89;6,60;47,94;48,78;-11,48;-0,72;0,57;6,97;653907
IF_LD_R4_8502001_JAM2M_INSF_82, SUBCASE 1, Case 1 Time 1.;129;-47,86;-32,61;-17,78;-6,60;-3,30;1,16;6,72;3,38;1,69;19,93;9,23;6,20;47,86;48,69;-47,86;-32,61;19,93;9,23;6,20;47,86;48,69;-16,65;-7,89;1,49;6,96;653907
IF_IP2_R4_8502005_82, SUBCASE 1, Case 1 Time 1.;9;-47,64;-29,40;-21,57;-7,23;-3,28;1,34;9,79;26,02;19,53;19,34;9,87;6,58;47,65;48,51;-47,64;-29,40;-21,57;9,87;6,58;47,65;48,51;-12,22;-1,12;0,81;6,93;653907
IF_TO_R4_8502005_JAM2_-55, SUBCASE 1, Case 1 Time 1.;83;-47,73;-29,78;-22,68;-6,28;-3,13;1,71;6,40;19,37;13,50;19,37;9,15;5,99;47,74;48,50;-47,73;-29,78;-22,68;9,15;5,99;47,74;48,50;-11,28;-1,52;0,37;6,93;653907
IF_TO_R4_8502005_JAM2_23, SUBCASE 1, Case 1 Time 1.;82;-47,25;-29,48;-20,00;-6,40;-3,14;2,08;7,49;20,23;14,38;18,56;9,13;5,98;47,25;48,05;-47,25;-29,48;-20,00;9,13;5,98;47,25;48,05;-12,18;-2,00;0,68;6,86;653907
IF_TO_R4_8502005_JAM2_82, SUBCASE 1, Case 1 Time 1.;84;-46,88;-29,25;-20,42;-6,49;-3,15;2,35;8,33;20,89;15,05;18,91;9,12;5,97;46,89;47,70;-46,88;-29,25;-20,42;9,12;5,97;46,89;47,70;-12,79;-2,35;0,91;6,81;653907
IF_CR_R1_8501009_DIS3_-55, SUBCASE 1, Case 1 Time 1.;56;-46,67;-27,79;-22,99;-6,38;-3,04;1,11;5,21;29,10;22,38;20,23;9,21;6,00;46,68;47,44;-46,67;-27,79;-22,99;9,21;6,00;46,68;47,44;-9,04;1,57;0,05;6,78;653907
IF_CR_R1_8501009_DIS1_-55, SUBCASE 1, Case 1 Time 1.;38;-46,53;-27,90;-22,71;-6,31;-2,99;1,31;5,05;28,26;21,66;19,95;9,11;5,95;46,54;47,26;-46,53;-27,90;-22,71;9,11;5,95;46,54;47,26;-9,19;1,32;0,07;6,75;653907
IF_CR_R1_8501009_DIS3_23, SUBCASE 1, Case 1 Time 1.;55;-46,17;-27,50;-20,28;-6,47;-3,04;2,25;8,86;29,73;23,05;18,32;9,17;5,97;46,18;46,96;-46,17;-27,50;-20,28;9,17;5,97;46,18;46,96;-9,87;0,99;0,36;6,71;653907
IF_CR_R1_8501009_DIS1_23, SUBCASE 1, Case 1 Time 1.;37;-46,05;-27,62;-20,00;-6,40;-2,99;2,03;8,66;28,84;22,30;18,08;9,06;5,92;46,06;46,81;-46,05;-27,62;-20,00;9,06;5,92;46,06;46,81;-10,06;0,68;0,39;6,69;653907
IF_CR_R1_8501009_DIS3_82, SUBCASE 1, Case 1 Time 1.;57;-45,79;-27,27;-21,60;-6,54;-3,05;2,57;10,97;30,20;23,56;18,57;9,14;5,95;45,79;46,60;-45,79;-27,27;-21,60;9,14;5,95;45,79;46,60;-10,61;0,63;0,59;6,66;653907
IF_LD_R2_8502001_JAM2M_INSF_-55, SUBCASE 1, Case 1 Time 1.;125;-44,33;-29,62;-19,97;-4,72;-3,36;1,16;7,86;8,34;8,88;18,51;7,45;4,76;44,33;46,54;-44,33;-29,62;-19,97;7,45;4,76;44,33;46,54;-13,49;-6,22;0,79;6,65;654092
IF_CR_R1_8501009_DIS1_82, SUBCASE 1, Case 1 Time 1.;39;-45,68;-27,41;-21,22;-6,47;-3,00;2,52;10,81;29,28;22,78;18,35;9,02;5,89;45,69;46,46;-45,68;-27,41;-21,22;9,02;5,89;45,69;46,46;-10,78;0,36;0,62;6,64;653907
IF_LD_R4_8502001_DIS3_-55, SUBCASE 1, Case 1 Time 1.;71;-45,44;-28,42;-21,86;-6,59;-3,06;1,26;6,11;20,65;14,76;18,80;9,29;6,22;45,44;46,20;-45,44;-28,42;-21,86;9,29;6,22;45,44;46,20;-10,44;-0,94;0,30;6,60;653907
IF_TO_R4_8502005_-55, SUBCASE 1, Case 1 Time 1.;11;-45,00;-27,95;-21,86;-6,71;-3,07;0,71;5,73;22,19;16,14;18,89;9,39;6,31;45,01;45,78;-45,00;-27,95;-21,86;9,39;6,31;45,01;45,78;-10,03;-0,45;0,26;6,54;653907
IF_LD_R4_8502001_DIS3_23, SUBCASE 1, Case 1 Time 1.;70;-44,97;-28,10;-19,17;-6,64;-3,07;1,42;7,50;21,36;15,51;17,69;9,21;6,15;44,97;45,75;-44,97;-28,10;-19,17;9,21;6,15;44,97;45,75;-11,27;-1,45;0,61;6,54;653907
IF_IP2_R4_8502005_JAM2M_OUT_-55, SUBCASE 1, Case 1 Time 1.;116;-44,81;-26,74;-22,28;-6,51;-2,99;1,31;4,58;28,73;22,11;19,68;9,22;6,09;44,81;45,58;-44,81;-26,74;-22,28;9,22;6,09;44,81;45,58;-8,60;1,65;0,03;6,51;653907
IF_TO_R4_8502005_23, SUBCASE 1, Case 1 Time 1.;10;-44,65;-27,73;-19,21;-6,81;-3,09;1,05;8,06;22,93;16,91;17,65;9,36;6,28;44,65;45,46;-44,65;-27,73;-19,21;9,36;6,28;44,65;45,46;-10,98;-0,98;0,57;6,49;653907
IF_LD_R4_8502001_DIS3_82, SUBCASE 1, Case 1 Time 1.;72;-44,61;-27,87;-19,83;-6,68;-3,07;1,55;8,32;21,90;16,09;18,18;9,15;6,10;44,61;45,41;-44,61;-27,87;-19,83;9,15;6,10;44,61;45,41;-11,97;-1,82;0,84;6,49;653907
IF_LD_R4_8502001_-55, SUBCASE 1, Case 1 Time 1.;17;-44,59;-27,86;-21,56;-6,37;-3,02;1,55;6,09;19,43;13,72;18,54;9,05;6,03;44,60;45,36;-44,59;-27,86;-21,56;9,05;6,03;44,60;45,36;-10,33;-1,11;0,31;6,48;653907
IF_TO_R4_8502005_82, SUBCASE 1, Case 1 Time 1.;12;-44,37;-27,56;-20,10;-6,89;-3,10;1,17;8,85;23,49;17,49;18,22;9,34;6,26;44,38;45,20;-44,37;-27,56;-20,10;9,34;6,26;44,38;45,20;-11,64;-1,36;0,80;6,46;653907
IF_IP2_R4_8502005_JAM2M_OUT_23, SUBCASE 1, Case 1 Time 1.;115;-44,33;-26,43;-19,61;-6,63;-3,00;2,51;8,68;29,62;23,02;17,73;9,20;6,08;44,34;45,13;-44,33;-26,43;-19,61;9,20;6,08;44,34;45,13;-9,62;1,03;0,36;6,45;653907
IF_LD_R4_8502001_23, SUBCASE 1, Case 1 Time 1.;16;-44,32;-27,68;-18,96;-6,47;-3,04;1,72;7,21;20,25;14,55;17,50;9,03;6,01;44,32;45,11;-44,32;-27,68;-18,96;9,03;6,01;44,32;45,11;-11,28;-1,64;0,63;6,44;653907
IF_LD_R4_8502001_82, SUBCASE 1, Case 1 Time 1.;18;-44,10;-27,54;-19,64;-6,55;-3,06;1,85;8,07;20,87;15,19;18,12;9,02;5,99;44,11;44,92;-44,10;-27,54;-19,64;9,02;5,99;44,11;44,92;-11,95;-2,00;0,86;6,42;653907
IF_LD_R2_8502001_JAM2M_INSF_23, SUBCASE 1, Case 1 Time 1.;124;-44,11;-29,50;-17,37;-4,83;-3,40;1,73;7,60;1,90;2,83;18,23;7,44;4,74;44,11;44,86;-44,11;-29,50;18,23;7,44;4,74;44,11;44,86;-14,38;-6,66;1,10;6,41;653907
IF_IP2_R4_8502005_JAM2M_OUT_82, SUBCASE 1, Case 1 Time 1.;117;-43,97;-26,20;-21,11;-6,72;-3,01;2,65;10,77;30,29;23,71;18,08;9,19;6,07;43,98;44,80;-43,97;-26,20;-21,11;9,19;6,07;43,98;44,80;-10,09;0,84;0,57;6,40;653907
IF_LD_R2_8502001_JAM2M_INSF_82, SUBCASE 1, Case 1 Time 1.;126;-43,87;-29,36;-16,23;-4,92;-3,39;1,62;7,38;2,20;1,38;17,98;7,43;4,74;43,87;44,63;-43,87;-29,36;17,98;7,43;4,74;43,87;44,63;-15,16;-7,18;1,34;6,38;653907
IF_LD_R4_8502001_JAM2_-55, SUBCASE 1, Case 1 Time 1.;89;-43,04;-26,84;-20,98;-6,39;-2,95;1,00;5,60;20,16;14,47;18,15;8,97;6,02;43,04;43,78;-43,04;-26,84;-20,98;8,97;6,02;43,04;43,78;-9,73;-0,70;0,26;6,25;653907
IF_LD_R2_8502001_-55, SUBCASE 1, Case 1 Time 1.;14;-42,94;-26,68;-20,54;-4,91;-2,72;0,64;6,29;14,78;9,85;17,62;7,58;4,80;42,94;43,63;-42,94;-26,68;-20,54;7,58;4,80;42,94;43,63;-10,31;-1,84;0,33;6,23;653907
IF_LD_R4_8502001_JAM2_23, SUBCASE 1, Case 1 Time 1.;88;-42,74;-26,65;-18,38;-6,53;-2,97;1,15;7,40;21,12;15,43;16,92;8,98;6,03;42,75;43,53;-42,74;-26,65;-18,38;8,98;6,03;42,75;43,53;-10,63;-1,19;0,57;6,22;653907
IF_LD_R2_8502001_23, SUBCASE 1, Case 1 Time 1.;13;-42,70;-26,53;-17,94;-5,02;-2,74;1,08;7,28;15,59;10,68;16,74;7,57;4,78;42,70;43,42;-42,70;-26,53;-17,94;7,57;4,78;42,70;43,42;-11,26;-2,34;0,65;6,20;653907
IF_LD_R4_8502001_JAM2_82, SUBCASE 1, Case 1 Time 1.;90;-42,52;-26,50;-19,27;-6,64;-2,99;1,26;8,26;21,85;16,15;17,60;8,99;6,04;42,53;43,33;-42,52;-26,50;-19,27;8,99;6,04;42,53;43,33;-11,32;-1,53;0,80;6,19;653907
IF_LD_R2_8502001_82, SUBCASE 1, Case 1 Time 1.;15;-42,51;-26,41;-18,25;-5,10;-2,75;1,44;8,06;16,21;11,30;17,25;7,56;4,77;42,52;43,26;-42,51;-26,41;-18,25;7,56;4,77;42,52;43,26;-11,95;-2,74;0,88;6,18;653907
IF_TO_R4_8502005_JAM2M_OUT_-55, SUBCASE 1, Case 1 Time 1.;122;-41,89;-25,07;-20,91;-6,00;-2,79;1,41;4,08;25,86;19,77;18,51;8,55;5,64;41,89;42,60;-41,89;-25,07;-20,91;8,55;5,64;41,89;42,60;-8,13;1,31;0,03;6,09;653907
IF_TO_R4_8502005_JAM2M_OUT_23, SUBCASE 1, Case 1 Time 1.;121;-41,43;-24,78;-18,24;-6,12;-2,80;1,92;7,98;26,75;20,68;16,52;8,53;5,63;41,44;42,18;-41,43;-24,78;-18,24;8,53;5,63;41,44;42,18;-9,16;0,70;0,36;6,03;653907
IF_TO_R4_8502005_JAM2M_OUT_82, SUBCASE 1, Case 1 Time 1.;123;-41,08;-24,56;-19,66;-6,22;-2,81;2,39;10,13;27,42;21,36;17,02;8,52;5,62;41,09;41,85;-41,08;-24,56;-19,66;8,52;5,62;41,09;41,85;-9,64;0,49;0,57;5,98;653907
IF_LD_R2_8502001_JAM2_-55, SUBCASE 1, Case 1 Time 1.;86;-38,15;-23,54;-18,79;-5,02;-2,50;0,95;5,00;16,80;11,95;16,43;7,36;4,81;38,15;38,78;-38,15;-23,54;-18,79;7,36;4,81;38,15;38,78;-8,50;-0,65;0,18;5,54;653907
IF_LD_R2_8502001_JAM2_23, SUBCASE 1, Case 1 Time 1.;85;-37,84;-23,34;-16,18;-5,15;-2,52;1,10;6,37;17,72;12,87;14,85;7,37;4,81;37,84;38,49;-37,84;-23,34;-16,18;7,37;4,81;37,84;38,49;-9,48;-1,16;0,50;5,50;653907
IF_LD_R2_8502001_JAM2_82, SUBCASE 1, Case 1 Time 1.;87;-37,60;-23,19;-17,02;-5,25;-2,54;1,21;7,22;18,41;13,57;15,67;7,37;4,81;37,60;38,28;-37,60;-23,19;-17,02;7,37;4,81;37,60;38,28;-10,09;-1,49;0,73;5,47;653907
IF_LD_R2_8502001_FS11_-55, SUBCASE 1, Case 1 Time 1.;32;-27,26;-23,33;-12,07;-5,06;-5,58;6,11;10,78;8,17;9,73;11,55;5,55;2,29;28,94;36,07;-27,26;-23,33;-12,07;5,55;-5,58;28,94;36,07;-9,79;-7,00;0,64;5,15;654092
IF_IP1_R1_8502005_JAM2_-55, SUBCASE 1, Case 1 Time 1.;77;-34,89;-20,71;-17,30;-3,53;-2,03;0,67;4,04;17,68;13,25;15,49;5,73;3,50;34,90;35,39;-34,89;-20,71;-17,30;5,73;3,50;34,90;35,39;-6,94;0,50;0,00;5,06;653907
IF_IP1_R1_8502005_JAM2_23, SUBCASE 1, Case 1 Time 1.;76;-34,23;-20,31;-14,53;-3,62;-2,03;1,27;6,74;18,39;14,01;13,11;5,67;3,47;34,24;34,75;-34,23;-20,31;-14,53;5,67;3,47;34,24;34,75;-7,91;0,02;0,32;4,96;653907
IF_IP1_R1_8502005_JAM2_82, SUBCASE 1, Case 1 Time 1.;78;-33,73;-20,00;-15,46;-3,69;-2,03;1,77;7,83;18,92;14,58;13,81;5,63;3,44;33,73;34,26;-33,73;-20,00;-15,46;5,63;3,44;33,73;34,26;-8,39;-0,36;0,54;4,89;653907
IF_IP1_R1_8502005_-55, SUBCASE 1, Case 1 Time 1.;5;-33,14;-19,50;-16,67;-3,51;-1,94;0,79;2,89;18,53;14,14;15,08;5,59;3,45;33,14;33,61;-33,14;-19,50;-16,67;5,59;3,45;33,14;33,61;-6,23;0,99;-0,06;4,80;653907
IF_IP1_R1_8502005_23, SUBCASE 1, Case 1 Time 1.;4;-32,67;-19,24;-13,97;-3,60;-1,95;1,20;6,27;19,15;14,80;12,56;5,55;3,42;32,68;33,16;-32,67;-19,24;-13,97;5,55;3,42;32,68;33,16;-7,28;0,47;0,27;4,74;653907
IF_IP1_R1_8502005_82, SUBCASE 1, Case 1 Time 1.;6;-32,32;-19,03;-15,11;-3,67;-1,96;2,11;8,14;19,61;15,30;13,34;5,52;3,40;32,32;32,83;-32,32;-19,03;-15,11;5,52;3,40;32,32;32,83;-7,82;0,04;0,49;4,69;653907
IF_LD_R2_8502001_DIS3_-55, SUBCASE 1, Case 1 Time 1.;68;-31,09;-18,95;-15,47;-2,93;-2,11;0,50;4,73;10,96;8,34;13,77;4,93;2,98;31,10;31,70;-31,09;-18,95;-15,47;4,93;2,98;31,10;31,70;-6,92;-0,85;0,10;4,53;654092
IF_LD_R2_8502001_DIS3_23, SUBCASE 1, Case 1 Time 1.;67;-30,66;-18,67;-12,79;-3,00;-2,15;0,87;5,63;11,64;8,19;11,75;4,86;2,93;30,66;31,16;-30,66;-18,67;-12,79;4,86;2,93;30,66;31,16;-7,91;-1,38;0,42;4,45;653907
IF_LD_R2_8502001_DIS3_82, SUBCASE 1, Case 1 Time 1.;69;-30,33;-18,46;-13,39;-3,05;-2,18;1,21;6,37;12,15;8,73;12,71;4,82;2,89;30,33;30,84;-30,33;-18,46;-13,39;4,82;2,89;30,33;30,84;-8,49;-1,76;0,65;4,41;653907
IF_LD_R2_8502001_DIS1_INSF_-55, SUBCASE 1, Case 1 Time 1.;50;-26,94;-16,43;-13,67;-2,44;-1,92;0,14;4,09;8,94;8,37;12,33;4,17;2,51;26,94;28,60;-26,94;-16,43;-13,67;4,17;2,51;26,94;28,60;-5,92;-0,78;0,06;4,09;654092
IF_IP1_R1_8502005_JAM2M_OUT_82, SUBCASE 1, Case 1 Time 1.;111;-23,02;-12,40;-12,82;-3,29;-1,39;2,29;8,21;25,55;21,35;10,42;4,63;2,90;25,59;27,23;25,55;21,35;-12,82;4,63;2,90;25,59;27,23;-3,78;3,14;0,10;3,89;654085
IF_LD_R2_8502001_FS11_23, SUBCASE 1, Case 1 Time 1.;31;-26,51;-19,96;-9,42;-5,10;-5,56;9,46;10,82;1,72;1,86;11,20;5,78;2,27;26,51;27,23;-26,51;-19,96;11,20;5,78;-5,56;26,51;27,23;-10,61;-7,41;0,95;3,89;653907
IF_LD_R2_8502001_FS11_82, SUBCASE 1, Case 1 Time 1.;33;-26,24;-19,48;-8,54;-5,13;-5,54;9,67;12,16;-0,66;0,90;10,94;5,95;2,26;26,25;26,97;-26,24;-19,48;10,94;5,95;-5,54;26,25;26,97;-11,39;-7,88;1,18;3,85;653907
IF_LD_R2_8502001_DIS1_INSF_23, SUBCASE 1, Case 1 Time 1.;49;-26,22;-16,02;-10,86;-2,51;-1,89;0,63;4,85;9,43;6,53;10,05;4,11;2,47;26,22;26,64;-26,22;-16,02;-10,86;4,11;2,47;26,22;26,64;-6,74;-1,33;0,37;3,81;653907
IF_LD_R2_8502001_DIS1_INSF_82, SUBCASE 1, Case 1 Time 1.;51;-25,77;-15,77;-11,49;-2,58;-1,87;0,99;5,51;9,85;7,00;11,10;4,06;2,44;25,77;26,21;-25,77;-15,77;-11,49;4,06;2,44;25,77;26,21;-7,44;-1,74;0,60;3,74;653907
IF_LD_R4_8502001_FS11_-55, SUBCASE 1, Case 1 Time 1.;35;-18,92;-14,32;-9,61;-2,35;-2,24;2,45;5,47;7,39;8,84;8,86;2,45;1,47;18,92;25,95;-18,92;-14,32;-9,61;2,45;-2,24;18,92;25,95;-5,67;-3,20;0,22;3,71;654092
IF_IP1_R1_8502005_JAM2M_OUT_-55, SUBCASE 1, Case 1 Time 1.;110;-24,01;-13,00;-13,30;-3,13;-1,39;1,84;7,03;24,25;19,98;12,94;4,67;2,96;24,29;25,46;24,25;19,98;-13,30;4,67;2,96;24,29;25,46;-2,27;4,00;-0,44;3,64;654099
IF_IP1_R1_8502005_JAM2M_OUT_23, SUBCASE 1, Case 1 Time 1.;109;-23,45;-12,66;-11,30;-3,22;-1,39;0,60;5,79;25,00;20,76;9,16;4,64;2,93;25,04;24,96;25,00;20,76;-11,30;4,64;2,93;25,04;24,96;-3,09;3,44;-0,12;3,57;654137
IF_IP1_R1_8502005_DIS3_-55, SUBCASE 1, Case 1 Time 1.;59;-22,80;-13,31;-12,07;-1,86;-1,34;0,17;2,84;11,34;8,53;11,33;3,34;2,02;22,80;24,90;-22,80;-13,31;-12,07;3,34;2,02;22,80;24,90;-4,05;0,66;-0,14;3,56;654099
IF_IP1_R1_8502005_DIS1_-55, SUBCASE 1, Case 1 Time 1.;41;-22,52;-13,19;-11,92;-1,83;-1,29;0,34;2,71;11,00;8,24;11,19;3,30;2,00;22,52;24,71;-22,52;-13,19;-11,92;3,30;2,00;22,52;24,71;-4,03;0,60;-0,13;3,53;654099
IF_LD_R4_8502001_DIS1_INSF_-55, SUBCASE 1, Case 1 Time 1.;53;-18,51;-11,57;-10,18;-2,22;-1,16;0,12;1,65;7,11;8,23;9,57;3,42;2,23;18,51;22,69;-18,51;-11,57;-10,18;3,42;2,23;18,51;22,69;-3,85;-0,43;-0,04;3,24;654099
IF_IP1_R1_8502005_DIS3_23, SUBCASE 1, Case 1 Time 1.;58;-22,36;-13,06;-9,38;-1,95;-1,35;0,73;4,58;11,94;9,18;8,41;3,31;1,92;22,37;22,68;-22,36;-13,06;-9,38;3,31;1,92;22,37;22,68;-5,08;0,11;0,19;3,24;653907
IF_IP1_R1_8502005_DIS1_23, SUBCASE 1, Case 1 Time 1.;40;-22,07;-12,94;-9,22;-1,92;-1,30;0,75;4,48;11,58;8,87;8,27;3,25;1,89;22,07;22,38;-22,07;-12,94;-9,22;3,25;1,89;22,07;22,38;-5,07;0,04;0,19;3,20;653907
IF_IP1_R1_8502005_DIS3_82, SUBCASE 1, Case 1 Time 1.;60;-22,03;-12,87;-10,50;-2,02;-1,36;1,26;5,59;12,39;9,66;9,62;3,28;1,89;22,03;22,37;-22,03;-12,87;-10,50;3,28;1,89;22,03;22,37;-5,66;-0,31;0,41;3,20;653907
IF_IP1_R1_8502005_DIS1_82, SUBCASE 1, Case 1 Time 1.;42;-21,73;-12,75;-10,31;-1,99;-1,31;1,10;5,41;12,01;9,35;9,49;3,22;1,87;21,73;22,05;-21,73;-12,75;-10,31;3,22;1,87;21,73;22,05;-5,64;-0,38;0,42;3,15;653907
IF_TO_R4_8502005_FS11_-55, SUBCASE 1, Case 1 Time 1.;29;-14,02;-9,82;-8,01;-1,52;-0,85;0,16;1,96;6,97;8,41;7,89;2,44;1,60;14,02;20,46;-14,02;-9,82;-8,01;2,44;1,60;14,02;20,46;-3,33;-1,20;-0,01;2,92;654092
IF_IP2_R4_8502005_FS11_-55, SUBCASE 1, Case 1 Time 1.;26;-13,20;-8,96;-7,73;-1,51;-0,80;0,35;1,54;6,91;8,33;7,72;2,38;1,58;13,20;19,45;-13,20;-8,96;-7,73;2,38;1,58;13,20;19,45;-2,89;-0,80;-0,06;2,78;654092
IF_LD_R4_8502001_FS11_23, SUBCASE 1, Case 1 Time 1.;34;-18,58;-12,59;-6,97;-2,39;-2,22;2,81;5,06;0,93;1,15;7,68;2,52;1,42;18,58;18,90;-18,58;-12,59;7,68;2,52;-2,22;18,58;18,90;-6,68;-3,79;0,55;2,70;653907
IF_LD_R4_8502001_FS11_82, SUBCASE 1, Case 1 Time 1.;36;-18,32;-12,44;-7,02;-2,42;-2,21;2,19;4,81;-0,39;0,35;8,39;2,70;1,42;18,32;18,66;-18,32;-12,44;8,39;2,70;-2,21;18,32;18,66;-7,28;-4,09;0,77;2,67;653907
IF_TO_R4_8502005_DIS1_-55, SUBCASE 1, Case 1 Time 1.;47;-12,67;-8,17;-7,70;-1,76;-0,82;0,20;0,84;6,82;8,20;7,71;2,59;1,77;12,67;18,64;-12,67;8,20;7,71;2,59;1,77;12,67;18,64;-2,44;-0,26;-0,11;2,66;654099
IF_LD_R4_8502001_DIS1_INSF_23, SUBCASE 1, Case 1 Time 1.;52;-18,10;-11,34;-7,50;-2,32;-1,17;0,47;2,80;6,99;4,84;7,07;3,38;2,20;18,10;18,39;-18,10;-11,34;-7,50;3,38;2,20;18,10;18,39;-4,83;-1,00;0,29;2,63;653907
IF_IP2_R4_8502005_DIS1_-55, SUBCASE 1, Case 1 Time 1.;44;-11,99;-7,81;-7,34;-1,58;-0,75;0,24;0,75;6,89;8,22;7,49;2,37;1,60;11,99;18,12;-11,99;8,22;7,49;2,37;1,60;11,99;18,12;-2,30;-0,28;-0,11;2,59;654092
IF_LD_R4_8502001_DIS1_INSF_82, SUBCASE 1, Case 1 Time 1.;54;-17,78;-11,17;-8,50;-2,39;-1,17;0,82;3,62;7,45;5,34;8,57;3,35;2,18;17,78;18,10;-17,78;-11,17;8,57;3,35;2,18;17,78;18,10;-5,47;-1,39;0,51;2,59;653907
IF_CR_R1_8501009_FS11_82, SUBCASE 1, Case 1 Time 1.;21;-8,28;-7,35;-5,64;-2,67;-1,15;0,90;4,03;13,16;11,20;6,28;3,16;2,86;13,19;17,37;13,16;11,20;6,28;3,16;2,86;13,19;17,37;-1,47;1,50;0,15;2,48;654085
IF_CR_R1_8501009_FS11_-55, SUBCASE 1, Case 1 Time 1.;20;-7,88;-4,73;-6,01;-2,76;-1,17;0,45;5,97;12,27;10,23;6,73;3,19;2,99;12,30;14,63;12,27;10,23;6,73;3,19;2,99;12,30;14,63;0,31;2,58;-0,41;2,09;654099
IF_TO_R4_8502005_DIS1_82, SUBCASE 1, Case 1 Time 1.;48;-11,96;-7,77;-6,18;-1,92;-0,83;0,61;2,63;5,01;3,58;7,09;2,53;1,71;11,96;14,39;-11,96;-7,77;7,09;2,53;1,71;11,96;14,39;-4,08;-1,24;0,45;2,06;654085
IF_TO_R4_8502005_FS11_82, SUBCASE 1, Case 1 Time 1.;30;-13,59;-9,05;-6,24;-1,72;-0,88;0,44;2,14;2,47;1,21;7,29;2,43;1,58;13,59;14,28;-13,59;-9,05;7,29;2,43;1,58;13,59;14,28;-5,03;-2,17;0,55;2,04;654085
IF_IP2_R4_8502005_FS11_82, SUBCASE 1, Case 1 Time 1.;27;-12,84;-8,47;-6,11;-1,71;-0,83;0,60;1,96;3,34;2,05;7,14;2,36;1,55;12,84;14,10;-12,84;-8,47;7,14;2,36;1,55;12,84;14,10;-4,63;-1,80;0,50;2,01;654085
IF_TO_R4_8502005_FS11_23, SUBCASE 1, Case 1 Time 1.;28;-13,77;-9,15;-5,39;-1,64;-0,87;0,35;1,97;1,94;0,88;5,59;2,43;1,59;13,78;13,98;-13,77;-9,15;5,59;2,43;1,59;13,78;13,98;-4,31;-1,76;0,32;2,00;653907
IF_IP2_R4_8502005_DIS1_82, SUBCASE 1, Case 1 Time 1.;45;-11,14;-7,27;-5,75;-1,72;-0,75;0,46;2,33;4,42;3,14;6,82;2,28;1,53;11,15;13,76;-11,14;-7,27;6,82;2,28;1,53;11,15;13,76;-3,90;-1,25;0,44;1,97;654085
IF_IP1_R1_8502005_FS11_82, SUBCASE 1, Case 1 Time 1.;24;-7,10;-6,75;-2,97;-0,96;-0,53;0,17;1,21;7,39;7,36;4,63;1,12;1,25;10,23;13,47;7,39;7,36;4,63;1,12;1,25;10,23;13,47;-0,03;1,23;0,09;1,92;654085
IF_IP2_R4_8502005_FS11_23, SUBCASE 1, Case 1 Time 1.;25;-13,00;-8,55;-5,13;-1,62;-0,82;0,22;1,69;2,86;1,55;5,21;2,37;1,56;13,00;13,19;-13,00;-8,55;5,21;2,37;1,56;13,00;13,19;-3,82;-1,33;0,26;1,88;653907
IF_CR_R1_8501009_FS11_23, SUBCASE 1, Case 1 Time 1.;19;-7,70;-4,67;-4,06;-2,59;-1,16;0,56;5,19;12,78;10,78;3,22;3,16;2,92;12,81;13,19;12,78;10,78;-4,06;3,16;2,92;12,81;13,19;-0,92;1,89;-0,07;1,88;654137
IF_TO_JAM2M_OUT_-55, SUBCASE 1, Case 1 Time 1.;104;-4,02;-4,02;-5,57;-0,57;-0,32;0,14;0,18;8,64;8,34;4,24;0,41;0,21;9,53;12,54;8,64;8,34;-5,57;-0,57;-0,32;9,53;12,54;1,14;0,48;-0,32;1,79;654085
IF_IP1_JAM2M_OUT_-55, SUBCASE 1, Case 1 Time 1.;92;-4,06;-4,05;-5,54;-0,58;-0,33;0,10;0,16;8,62;8,35;4,29;0,42;0,20;9,52;12,51;8,62;8,35;-5,54;-0,58;-0,33;9,52;12,51;1,11;0,47;-0,32;1,79;654085
IF_TO_R4_8502005_DIS1_23, SUBCASE 1, Case 1 Time 1.;46;-12,27;-7,94;-5,01;-1,85;-0,83;0,30;1,83;4,57;3,10;4,89;2,55;1,73;12,27;12,48;-12,27;-7,94;-5,01;2,55;1,73;12,27;12,48;-3,39;-0,83;0,22;1,78;653907
IF_IP2_JAM2M_OUT_-55, SUBCASE 1, Case 1 Time 1.;98;-3,91;-3,78;-5,41;-0,56;-0,32;0,08;0,13;8,53;8,33;4,44;0,42;0,21;9,33;12,13;8,53;8,33;-5,41;-0,56;-0,32;9,33;12,13;1,05;0,57;-0,32;1,73;654085
IF_LD_JAM2M_IN_-55, SUBCASE 1, Case 1 Time 1.;107;-3,05;-3,05;-5,64;-0,57;-0,29;0,14;0,34;8,62;8,29;4,20;0,43;0,31;9,15;12,03;8,62;8,29;-5,64;-0,57;0,31;9,15;12,03;1,43;0,85;-0,36;1,72;654085
IF_IP2_JAM2M_IN_-55, SUBCASE 1, Case 1 Time 1.;95;-4,76;-4,24;-4,94;-0,51;-0,33;0,03;0,49;8,31;8,38;4,97;0,40;0,27;9,64;11,87;8,31;8,38;4,97;-0,51;-0,33;9,64;11,87;0,43;0,37;-0,29;1,70;654092
IF_TO_JAM2M_IN_-55, SUBCASE 1, Case 1 Time 1.;101;-4,38;-4,00;-5,12;-0,52;-0,32;0,03;0,33;8,39;8,36;4,77;0,40;0,24;9,44;11,86;8,39;8,36;-5,12;-0,52;-0,32;9,44;11,86;0,67;0,47;-0,30;1,69;654085
IF_IP2_R4_8502005_DIS1_23, SUBCASE 1, Case 1 Time 1.;43;-11,51;-7,48;-4,63;-1,66;-0,75;0,32;1,68;4,01;2,68;4,57;2,31;1,56;11,51;11,69;-11,51;-7,48;-4,63;2,31;1,56;11,51;11,69;-3,27;-0,83;0,21;1,67;653907
IF_IP1_R1_8502005_FS11_-55, SUBCASE 1, Case 1 Time 1.;23;-1,49;-0,44;-4,77;-1,47;-0,55;0,36;1,22;9,08;7,89;5,09;1,18;1,37;9,10;10,47;9,08;7,89;5,09;-1,47;1,37;9,10;10,47;1,72;2,27;-0,47;1,50;654099
IF_IP2_JAM2M_IN_82, SUBCASE 1, Case 1 Time 1.;96;-6,61;-6,25;-2,96;-0,33;-0,30;0,17;0,51;2,12;2,28;4,44;0,49;0,22;7,00;9,38;-6,61;-6,25;4,44;0,49;-0,30;7,00;9,38;-1,28;-0,65;0,27;1,34;654085
IF_TO_JAM2M_IN_82, SUBCASE 1, Case 1 Time 1.;102;-6,53;-6,27;-3,16;-0,32;-0,20;0,12;0,27;2,48;2,51;4,27;0,44;0,23;7,00;9,23;-6,53;-6,27;4,27;0,44;0,23;7,00;9,23;-1,05;-0,56;0,26;1,32;654085
IF_LD_JAM2M_IN_82, SUBCASE 1, Case 1 Time 1.;108;-6,31;-6,33;-3,70;-0,30;-0,22;0,11;0,43;3,68;3,36;3,77;0,40;0,26;7,32;9,07;-6,31;-6,33;3,77;0,40;0,26;7,32;9,07;-0,34;-0,22;0,21;1,30;654085
IF_IP2_JAM2M_OUT_82, SUBCASE 1, Case 1 Time 1.;99;-6,41;-6,31;-3,46;-0,31;-0,16;0,02;0,11;3,03;2,85;4,01;0,41;0,24;7,02;9,05;-6,41;-6,31;4,01;0,41;0,24;7,02;9,05;-0,67;-0,42;0,23;1,29;654085
IF_TO_JAM2M_OUT_82, SUBCASE 1, Case 1 Time 1.;105;-6,30;-6,30;-3,66;-0,31;-0,19;0,03;0,15;2,93;2,60;3,83;0,39;0,24;6,95;8,63;-6,30;-6,30;3,83;0,39;0,24;6,95;8,63;-0,57;-0,51;0,24;1,23;654085
IF_IP1_JAM2M_OUT_82, SUBCASE 1, Case 1 Time 1.;93;-6,29;-6,29;-3,67;-0,31;-0,21;0,04;0,21;2,87;2,51;3,82;0,39;0,23;6,91;8,55;-6,29;-6,29;3,82;0,39;0,23;6,91;8,55;-0,57;-0,53;0,24;1,22;654085
IF_IP1_R1_8502005_FS11_23, SUBCASE 1, Case 1 Time 1.;22;-1,29;-0,66;-1,40;-1,18;-0,54;0,21;1,30;6,96;6,13;0,97;1,15;1,30;6,98;7,02;6,96;6,13;-1,40;-1,18;1,30;6,98;7,02;0,67;1,67;-0,14;1,00;654137
IF_IP2_JAM2M_IN_23, SUBCASE 1, Case 1 Time 1.;94;-1,89;-1,16;-0,71;-0,24;-0,25;0,05;0,42;0,18;0,11;0,70;0,27;0,11;1,89;1,92;-1,89;-1,16;-0,71;0,27;-0,25;1,89;1,92;-0,56;-0,22;0,04;0,27;653907
IF_LD_JAM2M_IN_23, SUBCASE 1, Case 1 Time 1.;106;-0,06;-0,08;-0,50;-0,21;-0,09;0,17;0,40;1,17;0,78;0,48;0,23;0,21;1,17;1,20;1,17;0,78;-0,50;0,23;0,21;1,17;1,20;0,39;0,22;-0,03;0,17;653907
IF_TO_JAM2M_IN_23, SUBCASE 1, Case 1 Time 1.;100;-1,09;-0,67;-0,39;-0,12;-0,13;0,05;0,22;0,13;0,06;0,40;0,14;0,06;1,09;1,10;-1,09;-0,67;0,40;0,14;-0,13;1,09;1,10;-0,33;-0,13;0,02;0,16;653907
IF_TO_JAM2M_OUT_23, SUBCASE 1, Case 1 Time 1.;103;-0,76;-0,63;-0,33;-0,09;-0,04;0,01;0,21;0,97;0,50;0,38;0,06;0,06;0,97;0,98;0,97;-0,63;0,38;-0,09;0,06;0,97;0,98;0,13;-0,10;0,01;0,14;653907
IF_IP1_JAM2M_OUT_23, SUBCASE 1, Case 1 Time 1.;91;-0,85;-0,71;-0,31;-0,09;-0,06;0,03;0,20;0,96;0,50;0,37;0,07;0,04;0,96;0,96;0,96;-0,71;0,37;-0,09;-0,06;0,96;0,96;-0,07;-0,13;0,02;0,14;653907
IF_IP2_JAM2M_OUT_23, SUBCASE 1, Case 1 Time 1.;97;-0,14;-0,11;-0,08;-0,02;-0,01;0,01;0,04;0,26;0,15;0,08;0,02;0,01;0,26;0,27;0,26;0,15;0,08;0,02;-0,01;0,26;0,27;0,03;-0,01;0,00;0,04;653907
Ref CID;Coord Material;;;;;;;;;;;;;;;;;;;;;;;;;;
