LC_Name;LC_ID;qxMin;qyMin;qxyMin;qxzMin;qyzMin;qshearMin;qvonmisesMin;qxMax;qyMax;qxyMax;qxzMax;qyzMax;qshearMax;qvonmisesMax;qxAbsMax;qyAbsMax;qxyAbsMax;qxzAbsMax;qyzAbsMax;qshearAbsMax;qvonmisesAbsMax;qxAverage;qyAverage;qxyAverage;sigmaVonMisesMax;CriticalElemID
IF_CR_R1_8501009_-55, SUBCASE 1, Case 1 Time 1.;2;-137,53;-131,21;-31,60;-8,63;-40,35;4,70;13,11;101,83;117,88;10,91;17,65;37,05;137,58;137,46;-137,53;-131,21;-31,60;17,65;-40,35;137,58;137,46;1,66;-4,09;-14,47;16,14;650933
IF_CR_R1_8501009_JAM2_-55, SUBCASE 1, Case 1 Time 1.;74;-136,59;-130,22;-31,73;-8,47;-40,93;4,97;12,11;101,60;118,46;11,06;17,45;36,86;136,64;136,55;-136,59;-130,22;-31,73;17,45;-40,93;136,64;136,55;1,53;-3,76;-14,28;16,05;650933
IF_CR_R1_8501009_23, SUBCASE 1, Case 1 Time 1.;1;-134,28;-127,84;-30,38;-9,28;-39,81;7,80;13,92;104,82;120,48;10,90;16,17;38,33;134,31;134,65;-134,28;-127,84;-30,38;16,17;-39,81;134,31;134,65;2,09;-2,81;-14,03;15,82;650933
IF_CR_R1_8501009_JAM2_23, SUBCASE 1, Case 1 Time 1.;73;-133,48;-127,00;-30,49;-9,14;-40,31;8,12;13,11;104,62;120,98;11,02;16,00;38,17;133,51;133,88;-133,48;-127,00;-30,49;16,00;-40,31;133,51;133,88;1,92;-2,52;-13,93;15,74;650933
IF_CR_R1_8501009_82, SUBCASE 1, Case 1 Time 1.;3;-131,82;-125,29;-29,42;-9,76;-39,40;8,52;14,60;107,08;122,43;10,84;15,04;39,29;131,83;132,56;-131,82;-125,29;-29,42;15,04;-39,40;131,83;132,56;2,32;-1,92;-13,92;15,60;650933
IF_CR_R1_8501009_JAM2_82, SUBCASE 1, Case 1 Time 1.;75;-131,11;-124,55;-29,52;-9,63;-39,84;8,50;13,95;106,89;122,86;10,95;14,89;39,15;131,13;131,88;-131,11;-124,55;-29,52;14,89;-39,84;131,13;131,88;2,21;-1,67;-13,78;15,58;650981
IF_IP2_R4_8502005_DIS3_82, SUBCASE 1, Case 1 Time 1.;63;-90,71;-85,95;-21,11;-6,73;-29,45;6,22;8,47;76,45;89,43;8,10;9,84;27,91;91,64;91,50;-90,71;89,43;-21,11;9,84;-29,45;91,64;91,50;1,40;-0,18;-9,25;11,39;650981
IF_IP2_R4_8502005_DIS3_-55, SUBCASE 1, Case 1 Time 1.;62;-95,99;-91,45;-22,83;-5,59;-30,30;3,28;6,60;70,83;84,48;8,19;11,85;25,87;96,03;95,98;-95,99;-91,45;-22,83;11,85;-30,30;96,03;95,98;0,74;-2,34;-9,74;11,28;650933
IF_IP2_R4_8502005_DIS3_23, SUBCASE 1, Case 1 Time 1.;61;-92,99;-88,32;-21,65;-6,24;-29,82;6,24;7,59;74,04;87,31;8,16;10,71;26,90;93,01;93,41;-92,99;-88,32;-21,65;10,71;-29,82;93,01;93,41;1,12;-1,08;-9,40;11,28;650981
IF_CR_R1_8501009_DIS3_-55, SUBCASE 1, Case 1 Time 1.;56;-92,98;-88,76;-21,55;-5,50;-27,41;2,74;8,16;66,95;78,24;7,51;11,61;24,85;93,03;92,85;-92,98;-88,76;-21,55;11,61;-27,41;93,03;92,85;0,81;-3,05;-9,61;10,90;650933
IF_CR_R1_8501009_DIS1_-55, SUBCASE 1, Case 1 Time 1.;38;-92,07;-88,04;-21,10;-5,20;-26,80;2,91;7,97;65,08;76,25;7,08;11,40;24,67;92,11;91,85;-92,07;-88,04;-21,10;11,40;-26,80;92,11;91,85;0,72;-3,32;-9,52;10,78;650933
IF_CR_R1_8501009_DIS3_23, SUBCASE 1, Case 1 Time 1.;55;-89,82;-85,49;-20,33;-6,15;-26,90;5,62;8,99;70,06;80,96;7,47;10,48;25,82;89,84;90,11;-89,82;-85,49;-20,33;10,48;-26,90;89,84;90,11;1,19;-1,76;-9,24;10,60;650933
IF_IP2_R4_8502005_JAM2M_OUT_-55, SUBCASE 1, Case 1 Time 1.;116;-89,86;-85,71;-20,94;-5,57;-26,57;2,52;8,01;65,29;75,97;7,53;11,27;23,98;89,91;89,74;-89,86;-85,71;-20,94;11,27;-26,57;89,91;89,74;0,87;-2,85;-9,21;10,54;650933
IF_CR_R1_8501009_DIS1_23, SUBCASE 1, Case 1 Time 1.;37;-88,87;-84,74;-19,86;-5,84;-26,27;5,33;8,79;68,14;78,92;7,01;10,27;25,43;88,89;89,06;-88,87;-84,74;-19,86;10,27;-26,27;88,89;89,06;1,08;-2,02;-9,12;10,48;650933
IF_CR_R1_8501009_DIS3_82, SUBCASE 1, Case 1 Time 1.;57;-87,42;-83,01;-19,39;-6,63;-26,50;5,62;9,75;72,39;82,99;7,40;9,62;26,80;87,44;88,08;-87,42;-83,01;-19,39;9,62;26,80;87,44;88,08;1,47;-0,87;-9,09;10,47;650981
IF_IP2_R4_8502005_JAM2M_IN_82, SUBCASE 1, Case 1 Time 1.;114;-67,00;-62,16;-19,97;-5,33;-29,03;3,84;10,61;61,67;78,82;8,17;7,34;21,62;81,34;78,21;-67,00;78,82;-19,97;7,34;-29,03;81,34;78,21;0,44;2,72;-5,70;10,43;650981
IF_IP2_R4_8502005_JAM2_82, SUBCASE 1, Case 1 Time 1.;81;-78,26;-73,82;-18,87;-5,99;-27,33;5,63;6,94;67,97;80,78;7,79;8,43;24,56;83,11;79,03;-78,26;80,78;-18,87;8,43;-27,33;83,11;79,03;1,10;0,68;-7,61;10,38;650981
IF_IP2_R4_8502005_JAM2M_IN_23, SUBCASE 1, Case 1 Time 1.;112;-68,45;-64,37;-20,39;-5,44;-29,40;3,73;10,29;59,19;77,18;8,60;7,50;20,58;79,35;77,49;-68,45;77,18;-20,39;7,50;-29,40;79,35;77,49;0,16;1,78;-5,90;10,33;650981
IF_IP2_R4_8502005_JAM2M_OUT_23, SUBCASE 1, Case 1 Time 1.;115;-87,22;-82,94;-19,83;-6,25;-26,13;5,49;8,90;68,73;79,00;7,53;10,24;25,20;87,25;87,53;-87,22;-82,94;-19,83;10,24;-26,13;87,25;87,53;1,24;-1,58;-8,94;10,30;650933
IF_CR_R1_8501009_DIS1_82, SUBCASE 1, Case 1 Time 1.;39;-86,44;-82,22;-18,91;-6,32;-25,87;5,34;9,54;70,43;80,92;6,93;9,41;26,39;86,44;86,99;-86,44;-82,22;-18,91;9,41;26,39;86,44;86,99;1,37;-1,15;-8,99;10,28;650933
IF_IP2_R4_8502005_82, SUBCASE 1, Case 1 Time 1.;9;-80,60;-76,17;-18,60;-6,30;-26,53;5,75;7,74;69,05;80,56;7,64;8,79;25,10;82,71;81,30;-80,60;80,56;-18,60;8,79;-26,53;82,71;81,30;1,30;0,13;-8,05;10,26;650981
IF_IP2_R4_8502005_JAM2_23, SUBCASE 1, Case 1 Time 1.;79;-80,25;-75,99;-19,43;-5,49;-27,69;5,47;6,01;65,43;78,56;7,85;9,20;23,50;80,57;80,71;-80,25;78,56;-19,43;9,20;-27,69;80,57;80,71;0,82;-0,22;-7,77;10,26;650981
IF_IP2_R4_8502005_JAM2M_OUT_82, SUBCASE 1, Case 1 Time 1.;117;-85,26;-80,83;-18,97;-6,76;-25,79;5,69;9,69;71,33;81,27;7,49;9,45;26,27;85,32;85,90;-85,26;81,27;-18,97;9,45;26,27;85,32;85,90;1,54;-0,74;-8,80;10,24;650981
IF_IP2_R4_8502005_JAM2M_IN_-55, SUBCASE 1, Case 1 Time 1.;113;-71,22;-67,26;-20,91;-5,61;-29,87;3,59;9,38;55,88;74,98;9,15;8,45;20,32;76,99;76,58;-71,22;74,98;-20,91;8,45;-29,87;76,99;76,58;-0,23;0,59;-6,13;10,21;650981
IF_TO_R4_8502005_DIS3_82, SUBCASE 1, Case 1 Time 1.;66;-79,97;-75,65;-18,68;-6,07;-26,24;5,58;7,46;68,07;79,75;7,34;8,61;24,84;81,80;80,73;-79,97;79,75;-18,68;8,61;-26,24;81,80;80,73;1,25;0,04;-8,07;10,16;650981
IF_IP2_R4_8502005_23, SUBCASE 1, Case 1 Time 1.;7;-82,67;-78,42;-19,48;-5,81;-26,86;5,76;6,86;66,54;78,33;7,68;9,58;24,07;82,70;83,07;-82,67;-78,42;-19,48;9,58;-26,86;82,70;83,07;1,02;-0,78;-8,22;10,13;650981
IF_IP2_R4_8502005_JAM2_-55, SUBCASE 1, Case 1 Time 1.;80;-82,97;-78,83;-20,57;-4,82;-28,15;3,37;4,98;62,06;75,79;7,88;10,20;22,68;83,02;83,00;-82,97;-78,83;-20,57;10,20;-28,15;83,02;83,00;0,43;-1,44;-8,03;10,11;650981
IF_IP2_R4_8502005_-55, SUBCASE 1, Case 1 Time 1.;8;-85,50;-81,37;-20,62;-5,15;-27,28;2,82;5,78;63,20;75,34;7,69;10,62;23,09;85,55;85,46;-85,50;-81,37;-20,62;10,62;-27,28;85,55;85,46;0,64;-2,04;-8,51;10,07;650933
IF_TO_R4_8502005_DIS3_23, SUBCASE 1, Case 1 Time 1.;64;-82,21;-78,03;-19,23;-5,58;-26,62;5,59;6,58;65,66;77,65;7,41;9,42;23,84;82,22;82,65;-82,21;-78,03;-19,23;9,42;-26,62;82,22;82,65;0,98;-0,86;-8,29;10,04;650981
IF_TO_R4_8502005_DIS3_-55, SUBCASE 1, Case 1 Time 1.;65;-85,23;-81,17;-20,42;-4,93;-27,11;2,81;5,59;62,47;74,83;7,45;10,47;23,00;85,27;85,25;-85,23;-81,17;-20,42;10,47;-27,11;85,27;85,25;0,59;-2,12;-8,55;10,03;650933
IF_TO_R4_8502005_JAM2M_OUT_-55, SUBCASE 1, Case 1 Time 1.;122;-81,98;-78,14;-19,28;-5,12;-24,52;2,20;7,11;59,50;69,50;7,09;10,25;21,90;82,02;81,92;-81,98;-78,14;-19,28;10,25;-24,52;82,02;81,92;0,77;-2,55;-8,32;9,62;650933
IF_TO_R4_8502005_JAM2_82, SUBCASE 1, Case 1 Time 1.;84;-70,92;-66,75;-17,13;-5,62;-25,12;5,20;6,42;62,41;74,25;7,25;7,59;22,43;76,46;71,69;-70,92;74,25;-17,13;7,59;-25,12;76,46;71,69;1,10;0,85;-6,80;9,55;650981
IF_TO_R4_8502005_82, SUBCASE 1, Case 1 Time 1.;12;-73,04;-68,86;-16,90;-5,89;-24,44;5,46;6,97;63,43;74,15;7,12;7,91;22,93;76,19;73,70;-73,04;74,15;-16,90;7,91;-24,44;76,19;73,70;1,27;0,38;-7,20;9,45;650981
IF_TO_R4_8502005_JAM2M_OUT_82, SUBCASE 1, Case 1 Time 1.;123;-77,51;-73,30;-17,31;-6,31;-23,74;5,33;8,91;65,57;74,85;7,03;8,53;24,07;77,55;78,12;-77,51;74,85;-17,31;8,53;24,07;77,55;78,12;1,44;-0,45;-7,92;9,44;650981
IF_TO_R4_8502005_JAM2_23, SUBCASE 1, Case 1 Time 1.;82;-72,80;-68,89;-17,70;-5,12;-25,47;5,04;5,52;59,84;72,00;7,31;8,32;21,37;73,89;73,31;-72,80;72,00;-17,70;8,32;-25,47;73,89;73,31;0,82;-0,03;-6,98;9,42;650981
IF_TO_R4_8502005_JAM2M_OUT_23, SUBCASE 1, Case 1 Time 1.;121;-79,36;-75,39;-18,17;-5,80;-24,08;5,26;8,05;62,97;72,56;7,08;9,28;22,99;79,38;79,73;-79,36;-75,39;-18,17;9,28;-24,08;79,38;79,73;1,15;-1,29;-8,05;9,39;650933
IF_TO_R4_8502005_23, SUBCASE 1, Case 1 Time 1.;10;-74,99;-71,08;-17,77;-5,40;-24,76;5,45;6,08;60,89;71,88;7,17;8,65;21,89;75,01;75,44;-74,99;71,88;-17,77;8,65;-24,76;75,01;75,44;0,99;-0,52;-7,40;9,32;650981
IF_TO_R4_8502005_JAM2M_IN_INSF_82, SUBCASE 1, Case 1 Time 1.;120;-57,87;-53,19;-17,47;-4,77;-25,94;3,43;10,24;54,31;69,97;7,60;6,75;18,83;72,26;69,56;-57,87;69,97;-17,47;6,75;-25,94;72,26;69,56;0,50;2,80;-4,69;9,28;650981
IF_TO_R4_8502005_JAM2_-55, SUBCASE 1, Case 1 Time 1.;83;-75,49;-71,70;-18,83;-4,45;-25,92;2,95;4,56;56,43;69,30;7,34;9,26;20,66;75,54;75,57;-75,49;-71,70;-18,83;9,26;-25,92;75,54;75,57;0,43;-1,27;-7,21;9,26;650981
IF_LD_R4_8502001_DIS3_82, SUBCASE 1, Case 1 Time 1.;72;-70,85;-66,81;-16,84;-5,49;-23,91;5,09;6,45;61,15;72,16;6,84;7,57;22,25;74,14;71,57;-70,85;72,16;-16,84;7,57;-23,91;74,14;71,57;1,08;0,37;-7,00;9,21;650981
IF_TO_R4_8502005_JAM2M_IN_INSF_23, SUBCASE 1, Case 1 Time 1.;118;-59,07;-55,48;-17,86;-4,87;-26,28;3,35;9,91;51,85;68,30;7,98;6,46;17,81;70,31;68,80;-59,07;68,30;-17,86;6,46;-26,28;70,31;68,80;0,24;1,85;-4,92;9,17;650981
IF_TO_R4_8502005_-55, SUBCASE 1, Case 1 Time 1.;11;-77,78;-73,99;-18,90;-4,74;-25,18;2,44;4,82;57,52;68,86;7,18;9,62;21,04;77,83;77,80;-77,78;-73,99;-18,90;9,62;-25,18;77,83;77,80;0,61;-1,78;-7,65;9,17;650929
IF_LD_R4_8502001_82, SUBCASE 1, Case 1 Time 1.;18;-68,34;-64,24;-16,12;-5,65;-23,93;5,21;6,31;60,51;71,50;7,07;7,35;21,65;73,62;69,22;-68,34;71,50;-16,12;7,35;-23,93;73,62;69,22;1,21;0,83;-6,57;9,17;650981
IF_LD_R4_8502001_DIS3_23, SUBCASE 1, Case 1 Time 1.;70;-72,92;-69,12;-17,32;-5,00;-24,28;5,11;5,53;58,70;70,00;6,91;8,31;21,23;72,93;73,40;-72,92;70,00;-17,32;8,31;-24,28;72,93;73,40;0,80;-0,52;-7,16;9,09;650981
IF_TO_R4_8502005_JAM2M_IN_INSF_-55, SUBCASE 1, Case 1 Time 1.;119;-61,95;-58,48;-18,33;-5,01;-26,71;3,25;8,90;48,57;66,05;8,46;7,34;17,77;67,89;67,84;-61,95;66,05;-18,33;7,34;-26,71;67,89;67,84;-0,15;0,62;-5,14;9,05;650981
IF_LD_R4_8502001_23, SUBCASE 1, Case 1 Time 1.;16;-70,09;-66,31;-16,96;-5,15;-24,21;5,06;5,42;57,85;69,10;7,11;8,05;20,56;70,89;70,64;-70,09;69,10;-16,96;8,05;-24,21;70,89;70,64;0,93;-0,07;-6,72;9,02;650981
IF_LD_R4_8502001_JAM2_82, SUBCASE 1, Case 1 Time 1.;90;-68,69;-64,63;-15,97;-5,69;-23,29;5,32;6,53;60,27;70,60;6,91;7,42;21,68;72,60;69,45;-68,69;70,60;-15,97;7,42;-23,29;72,60;69,45;1,25;0,55;-6,71;9,01;650981
IF_LD_R4_8502001_DIS3_-55, SUBCASE 1, Case 1 Time 1.;71;-75,84;-72,16;-18,49;-4,34;-24,75;2,58;4,51;55,43;67,19;6,95;9,28;20,58;75,88;75,91;-75,84;-72,16;-18,49;9,28;-24,75;75,88;75,91;0,42;-1,78;-7,46;8,94;650929
IF_LD_R4_8502001_JAM2_23, SUBCASE 1, Case 1 Time 1.;88;-70,27;-66,54;-16,79;-5,18;-23,56;5,15;5,60;57,51;68,12;6,94;8,10;20,55;70,29;70,78;-70,27;68,12;-16,79;8,10;-23,56;70,29;70,78;0,96;-0,32;-6,84;8,85;650981
IF_LD_R4_8502001_-55, SUBCASE 1, Case 1 Time 1.;17;-72,67;-69,02;-18,05;-4,48;-24,58;2,55;4,11;54,33;66,11;7,11;8,96;19,79;72,71;72,79;-72,67;-69,02;-18,05;8,96;-24,58;72,71;72,79;0,55;-1,32;-6,96;8,83;650981
IF_LD_R4_8502001_JAM2_-55, SUBCASE 1, Case 1 Time 1.;89;-72,64;-69,04;-17,84;-4,49;-23,92;2,29;4,17;53,85;64,87;6,94;8,97;19,69;72,68;72,72;-72,64;-69,04;-17,84;8,97;-23,92;72,68;72,72;0,58;-1,56;-7,05;8,65;650981
IF_LD_R2_8502001_82, SUBCASE 1, Case 1 Time 1.;15;-59,98;-55,97;-14,99;-4,98;-22,58;4,42;5,96;54,42;65,57;6,57;6,31;19,27;67,75;63,67;-59,98;65,57;-14,99;6,31;-22,58;67,75;63,67;1,03;1,41;-5,47;8,49;650981
IF_LD_R2_8502001_23, SUBCASE 1, Case 1 Time 1.;13;-61,44;-58,02;-15,33;-4,48;-22,86;4,29;5,20;51,75;63,15;6,61;6,96;18,18;64,98;62,57;-61,44;63,15;-15,33;6,96;-22,86;64,98;62,57;0,75;0,49;-5,65;8,34;650981
IF_LD_R2_8502001_-55, SUBCASE 1, Case 1 Time 1.;14;-63,98;-60,70;-16,36;-3,82;-23,20;2,55;4,48;48,19;60,54;6,62;7,80;17,67;64,03;64,12;-63,98;-60,70;-16,36;7,80;-23,20;64,03;64,12;0,37;-0,75;-5,86;8,16;650981
IF_LD_R2_8502001_JAM2_82, SUBCASE 1, Case 1 Time 1.;87;-59,31;-55,65;-13,76;-5,02;-20,57;4,60;5,69;52,92;62,19;6,06;6,34;18,99;64,05;60,20;-59,31;62,19;-13,76;6,34;-20,57;64,05;60,20;1,13;0,78;-5,69;7,94;650981
IF_LD_R4_8502001_JAM2M_INSF_82, SUBCASE 1, Case 1 Time 1.;129;-43,59;-38,93;-13,98;-4,39;-22,32;2,88;11,30;43,77;58,32;7,57;6,14;14,53;60,42;58,61;43,77;58,32;-13,98;6,14;-22,32;60,42;58,61;0,61;3,40;-2,89;7,81;650981
IF_LD_R2_8502001_JAM2_23, SUBCASE 1, Case 1 Time 1.;85;-60,86;-57,61;-14,59;-4,52;-20,86;4,44;4,77;50,20;59,75;6,11;6,96;17,87;61,28;61,31;-60,86;59,75;-14,59;6,96;-20,86;61,28;61,31;0,85;-0,10;-5,85;7,79;650981
IF_LD_R4_8502001_JAM2M_INSF_23, SUBCASE 1, Case 1 Time 1.;127;-44,09;-41,17;-14,33;-4,50;-22,64;2,87;11,13;41,27;56,60;7,93;5,72;13,50;58,56;57,85;-44,09;56,60;-14,33;5,72;-22,64;58,56;57,85;0,34;2,49;-3,07;7,71;650981
IF_IP1_R1_8502005_JAM2M_OUT_-55, SUBCASE 1, Case 1 Time 1.;110;-66,58;-63,91;-16,18;-3,64;-15,09;2,19;6,87;42,91;47,14;4,45;8,34;17,21;66,63;66,25;-66,58;-63,91;-16,18;8,34;17,21;66,63;66,25;0,30;-4,11;-7,39;7,67;650933
IF_LD_R2_8502001_JAM2_-55, SUBCASE 1, Case 1 Time 1.;86;-63,30;-60,19;-15,66;-3,84;-21,23;1,70;3,11;46,59;56,74;6,12;7,78;17,21;63,34;63,34;-63,30;-60,19;-15,66;7,78;-21,23;63,34;63,34;0,46;-1,34;-6,04;7,59;650981
IF_LD_R4_8502001_JAM2M_INSF_-55, SUBCASE 1, Case 1 Time 1.;128;-47,35;-44,56;-14,73;-4,56;-22,99;2,97;10,34;38,15;54,25;8,19;5,63;13,93;56,01;56,84;-47,35;54,25;-14,73;5,63;-22,99;56,01;56,84;0,02;1,14;-3,40;7,58;650981
IF_IP1_R1_8502005_JAM2_-55, SUBCASE 1, Case 1 Time 1.;77;-64,20;-61,36;-15,16;-3,31;-19,66;1,71;4,23;44,60;53,47;5,19;7,80;17,28;64,24;64,09;-64,20;-61,36;-15,16;7,80;-19,66;64,24;64,09;0,25;-2,21;-6,48;7,50;650933
IF_IP1_R1_8502005_-55, SUBCASE 1, Case 1 Time 1.;5;-64,13;-61,33;-14,99;-3,36;-18,96;1,81;4,94;44,23;52,39;5,09;7,83;17,16;64,17;63,99;-64,13;-61,33;-14,99;7,83;-18,96;64,17;63,99;0,28;-2,42;-6,56;7,48;650933
IF_IP1_R1_8502005_JAM2M_OUT_23, SUBCASE 1, Case 1 Time 1.;109;-63,61;-60,83;-14,65;-4,30;-14,83;2,63;7,43;46,13;49,91;4,40;7,46;18,15;63,63;63,67;-63,61;-60,83;-14,65;7,46;18,15;63,63;63,67;0,68;-2,85;-7,05;7,40;650933
IF_IP1_R1_8502005_JAM2_82, SUBCASE 1, Case 1 Time 1.;78;-58,94;-55,68;-13,50;-4,44;-18,63;3,79;6,12;50,07;58,12;5,02;6,21;18,64;59,61;59,30;-58,94;58,12;-13,50;6,21;18,64;59,61;59,30;0,91;-0,06;-6,00;7,33;650981
IF_IP1_R1_8502005_JAM2_23, SUBCASE 1, Case 1 Time 1.;76;-61,08;-58,14;-13,98;-3,95;-19,08;3,81;5,20;47,73;56,13;5,11;6,90;17,67;61,09;61,27;-61,08;-58,14;-13,98;6,90;-19,08;61,09;61,27;0,65;-0,98;-6,29;7,23;650981
IF_IP1_R1_8502005_JAM2M_OUT_82, SUBCASE 1, Case 1 Time 1.;111;-61,64;-58,49;-13,51;-4,80;-15,07;2,66;9,00;48,55;51,99;4,32;6,78;19,15;61,67;61,79;-61,64;-58,49;-13,51;6,78;19,15;61,67;61,79;0,95;-1,99;-6,92;7,22;650933
IF_IP1_R1_8502005_23, SUBCASE 1, Case 1 Time 1.;4;-61,01;-58,10;-13,77;-4,01;-18,46;3,68;5,77;47,39;55,18;5,02;6,93;17,63;61,03;61,19;-61,01;-58,10;-13,77;6,93;-18,46;61,03;61,19;0,67;-1,17;-6,36;7,20;650933
IF_LD_R2_8502001_JAM2M_INSF_82, SUBCASE 1, Case 1 Time 1.;126;-39,18;-34,88;-12,82;-4,14;-20,65;2,71;10,99;39,88;53,56;7,43;5,75;13,18;55,56;53,95;39,88;53,56;-12,82;5,75;-20,65;55,56;53,95;0,63;3,32;-2,46;7,19;650981
IF_IP1_R1_8502005_82, SUBCASE 1, Case 1 Time 1.;6;-58,89;-55,65;-13,10;-4,49;-18,07;3,67;6,59;49,77;57,26;4,94;6,25;18,60;58,92;59,20;-58,89;57,26;-13,10;6,25;18,60;58,92;59,20;0,93;-0,24;-6,06;7,19;650981
IF_LD_R2_8502001_JAM2M_INSF_23, SUBCASE 1, Case 1 Time 1.;124;-39,50;-36,91;-13,15;-4,25;-20,96;2,70;10,83;37,28;51,75;7,62;5,31;12,11;53,61;53,14;-39,50;51,75;-13,15;5,31;-20,96;53,61;53,14;0,37;2,38;-2,68;7,08;650981
IF_LD_R2_8502001_JAM2M_INSF_-55, SUBCASE 1, Case 1 Time 1.;125;-42,23;-39,75;-13,53;-4,36;-21,31;2,71;10,38;33,86;49,30;8,07;4,97;12,61;50,97;52,11;-42,23;49,30;-13,53;4,97;-21,31;50,97;52,11;-0,01;1,13;-2,85;6,95;650981
IF_LD_R2_8502001_DIS3_82, SUBCASE 1, Case 1 Time 1.;69;-44,14;-40,87;-10,75;-3,77;-16,09;3,35;4,42;40,29;48,04;4,61;4,59;14,45;49,65;46,15;-44,14;48,04;-10,75;4,59;-16,09;49,65;46,15;0,85;1,05;-4,03;6,15;650981
IF_LD_R2_8502001_DIS3_23, SUBCASE 1, Case 1 Time 1.;67;-45,62;-43,18;-11,15;-3,29;-16,45;3,23;3,58;37,82;45,85;4,68;5,12;13,44;47,12;45,98;-45,62;45,85;-11,15;5,12;-16,45;47,12;45,98;0,58;0,13;-4,26;6,03;650981
IF_LD_R2_8502001_DIS3_-55, SUBCASE 1, Case 1 Time 1.;68;-48,53;-46,20;-12,22;-2,64;-16,91;0,95;2,06;34,52;43,50;4,74;5,88;13,32;48,57;48,63;-48,53;-46,20;-12,22;5,88;-16,91;48,57;48,63;0,20;-1,12;-4,48;5,89;650981
IF_LD_R2_8502001_DIS1_INSF_82, SUBCASE 1, Case 1 Time 1.;51;-36,57;-33,47;-8,77;-3,29;-13,51;2,86;3,87;34,09;40,57;3,90;4,02;12,16;42,04;38,89;-36,57;40,57;-8,77;4,02;-13,51;42,04;38,89;0,81;1,11;-3,23;5,18;650981
IF_LD_R2_8502001_DIS1_INSF_23, SUBCASE 1, Case 1 Time 1.;49;-38,05;-36,01;-9,25;-2,83;-13,95;2,76;3,08;31,80;38,60;4,00;4,27;11,22;39,72;38,37;-38,05;38,60;-9,25;4,27;-13,95;39,72;38,37;0,54;0,20;-3,43;5,09;650981
IF_LD_R2_8502001_DIS1_INSF_-55, SUBCASE 1, Case 1 Time 1.;50;-41,52;-39,56;-10,55;-2,22;-14,58;0,64;1,60;28,94;36,82;4,11;5,04;11,41;41,57;41,64;-41,52;-39,56;-10,55;5,04;-14,58;41,57;41,64;0,17;-1,07;-3,76;5,02;650981
IF_IP1_R1_8502005_DIS3_-55, SUBCASE 1, Case 1 Time 1.;59;-43,18;-41,35;-10,31;-2,05;-12,87;1,67;2,79;28,09;34,05;3,46;5,22;11,56;43,22;43,13;-43,18;-41,35;-10,31;5,22;-12,87;43,22;43,13;-0,01;-1,92;-4,34;5,01;650933
IF_IP1_R1_8502005_DIS1_-55, SUBCASE 1, Case 1 Time 1.;41;-42,53;-40,79;-10,06;-2,15;-12,62;1,63;2,61;27,24;33,20;3,25;5,08;11,41;42,57;42,48;-42,53;-40,79;-10,06;5,08;-12,62;42,57;42,48;-0,03;-1,98;-4,27;4,93;650933
IF_IP1_R1_8502005_DIS3_82, SUBCASE 1, Case 1 Time 1.;60;-38,31;-35,75;-8,65;-3,09;-12,00;2,42;4,46;33,71;38,82;3,31;3,93;12,65;39,89;38,97;-38,31;38,82;-8,65;3,93;12,65;39,89;38,97;0,64;0,27;-3,85;4,84;650981
IF_IP1_R1_8502005_DIS3_23, SUBCASE 1, Case 1 Time 1.;58;-40,11;-38,17;-9,10;-2,61;-12,38;2,43;3,58;31,30;36,69;3,39;4,49;11,66;40,12;40,24;-40,11;-38,17;-9,10;4,49;-12,38;40,12;40,24;0,38;-0,66;-4,12;4,74;650933
IF_IP1_R1_8502005_DIS1_82, SUBCASE 1, Case 1 Time 1.;42;-37,53;-35,13;-8,60;-2,94;-11,74;2,32;4,30;32,78;37,85;3,07;3,79;12,39;38,89;38,17;-37,53;37,85;-8,60;3,79;12,39;38,89;38,17;0,62;0,20;-3,78;4,72;650981
IF_IP1_R1_8502005_DIS1_23, SUBCASE 1, Case 1 Time 1.;40;-39,42;-37,58;-9,02;-2,47;-12,12;2,32;3,40;30,40;35,77;3,16;4,35;11,42;39,42;39,50;-39,42;-37,58;-9,02;4,35;-12,12;39,42;39,50;0,35;-0,73;-4,04;4,65;650933
IF_CR_R1_8501009_FS11_-55, SUBCASE 1, Case 1 Time 1.;20;-31,97;-30,91;-10,58;-2,05;-5,01;1,09;3,33;16,58;15,98;1,97;4,21;8,09;32,02;31,93;-31,97;-30,91;-10,58;4,21;8,09;32,02;31,93;0,63;-3,47;-3,64;3,70;650933
IF_LD_R4_8502001_DIS1_INSF_82, SUBCASE 1, Case 1 Time 1.;54;-25,64;-22,76;-5,57;-2,68;-9,19;2,15;3,05;25,00;29,04;2,88;3,05;8,86;30,20;27,41;-25,64;29,04;-5,57;3,05;-9,19;30,20;27,41;0,75;1,05;-2,19;3,65;650981
IF_LD_R2_8502001_FS11_82, SUBCASE 1, Case 1 Time 1.;33;-15,70;-6,04;-6,09;-3,16;-10,79;0,40;3,95;13,32;25,14;10,76;3,26;3,86;26,68;26,73;-15,70;25,14;10,76;3,26;-10,79;26,68;26,73;-1,08;5,10;1,70;3,56;650981
IF_LD_R2_8502001_FS11_23, SUBCASE 1, Case 1 Time 1.;31;-15,17;-5,71;-6,45;-3,28;-11,12;1,17;2,56;10,71;23,35;10,75;3,24;3,41;24,74;26,45;-15,17;23,35;10,75;-3,28;-11,12;24,74;26,45;-1,34;4,18;1,51;3,53;650981
IF_LD_R4_8502001_DIS1_INSF_23, SUBCASE 1, Case 1 Time 1.;52;-26,59;-25,11;-6,48;-2,21;-9,55;2,05;2,18;22,54;26,86;2,96;3,06;7,87;27,66;26,84;-26,59;26,86;-6,48;3,06;-9,55;27,66;26,84;0,48;0,13;-2,39;3,53;650981
IF_LD_R2_8502001_FS11_-55, SUBCASE 1, Case 1 Time 1.;32;-14,41;-5,43;-6,90;-3,41;-11,54;0,92;3,23;7,24;20,97;10,97;4,22;3,54;22,16;26,38;-14,41;20,97;10,97;4,22;-11,54;22,16;26,38;-1,73;2,98;1,32;3,52;650981
IF_LD_R4_8502001_DIS1_INSF_-55, SUBCASE 1, Case 1 Time 1.;53;-29,56;-28,20;-7,66;-1,79;-10,02;0,24;1,64;19,27;24,52;3,12;3,67;8,04;29,61;29,68;-29,56;-28,20;-7,66;3,67;-10,02;29,61;29,68;0,11;-1,14;-2,65;3,48;650929
IF_CR_R1_8501009_FS11_23, SUBCASE 1, Case 1 Time 1.;19;-29,03;-27,87;-8,94;-2,68;-5,33;0,83;1,22;19,94;19,14;1,93;3,60;7,72;29,05;29,04;-29,03;-27,87;-8,94;3,60;7,72;29,05;29,04;0,99;-2,17;-3,41;3,42;650933
IF_CR_R1_8501009_FS11_82, SUBCASE 1, Case 1 Time 1.;21;-27,37;-25,55;-7,71;-3,15;-5,64;2,54;2,72;22,48;21,52;1,87;3,14;8,73;27,38;27,71;-27,37;-25,55;-7,71;-3,15;8,73;27,38;27,71;1,25;-1,27;-3,18;3,27;650937
IF_LD_R4_8502001_FS11_82, SUBCASE 1, Case 1 Time 1.;36;-12,29;-9,22;-4,31;-1,91;-8,08;0,28;5,20;16,42;22,28;4,13;2,35;5,43;23,32;21,92;16,42;22,28;-4,31;2,35;-8,08;23,32;21,92;-0,07;2,72;-0,11;2,92;650981
IF_LD_R4_8502001_FS11_23, SUBCASE 1, Case 1 Time 1.;34;-12,35;-10,80;-4,67;-1,70;-8,41;0,24;4,56;13,77;20,47;4,19;1,83;4,35;21,28;21,17;13,77;20,47;-4,67;1,83;-8,41;21,28;21,17;-0,36;1,86;-0,25;2,82;650981
IF_LD_R4_8502001_FS11_-55, SUBCASE 1, Case 1 Time 1.;35;-14,14;-13,04;-5,67;-1,83;-8,82;0,13;2,71;10,26;18,06;5,21;2,61;4,30;18,69;20,53;-14,14;18,06;-5,67;2,61;-8,82;18,69;20,53;-0,73;0,60;-0,48;2,74;650981
IF_TO_R4_8502005_FS11_82, SUBCASE 1, Case 1 Time 1.;30;-15,07;-12,30;-3,56;-1,93;-6,46;0,92;2,72;17,03;20,23;2,38;2,23;5,90;21,34;19,12;17,03;20,23;-3,56;2,23;-6,46;21,34;19,12;0,37;1,59;-0,90;2,55;650981
IF_IP2_R4_8502005_FS11_82, SUBCASE 1, Case 1 Time 1.;27;-16,02;-13,31;-3,61;-2,00;-6,31;1,07;2,50;17,50;20,32;2,25;2,21;6,14;21,38;19,03;17,50;20,32;-3,61;2,21;-6,31;21,38;19,03;0,45;1,37;-1,10;2,54;650981
IF_TO_R4_8502005_DIS1_82, SUBCASE 1, Case 1 Time 1.;48;-17,34;-14,72;-3,73;-2,10;-6,19;1,49;2,50;18,01;20,43;2,05;2,27;6,39;21,39;18,94;18,01;20,43;-3,73;2,27;6,39;21,39;18,94;0,62;1,03;-1,39;2,52;650981
IF_TO_R4_8502005_DIS1_-55, SUBCASE 1, Case 1 Time 1.;47;-21,08;-20,15;-5,68;-1,52;-6,90;0,64;1,43;12,28;15,91;2,40;2,69;5,69;21,14;21,19;-21,08;-20,15;-5,68;2,69;-6,90;21,14;21,19;-0,01;-1,17;-1,86;2,46;650933
IF_TO_R4_8502005_FS11_23, SUBCASE 1, Case 1 Time 1.;28;-15,21;-14,06;-4,28;-1,45;-6,76;0,94;2,04;14,40;18,06;2,44;1,88;4,84;18,59;18,05;-15,21;18,06;-4,28;1,88;-6,76;18,59;18,05;0,10;0,68;-1,07;2,41;650981
IF_TO_R4_8502005_DIS1_23, SUBCASE 1, Case 1 Time 1.;46;-18,08;-17,05;-4,45;-1,63;-6,45;1,39;1,60;15,55;18,24;2,13;2,14;5,40;18,82;18,24;-18,08;18,24;-4,45;2,14;-6,45;18,82;18,24;0,35;0,11;-1,58;2,39;650981
IF_IP2_R4_8502005_FS11_23, SUBCASE 1, Case 1 Time 1.;25;-16,31;-15,25;-4,37;-1,52;-6,60;1,03;1,62;14,88;18,01;2,31;2,01;5,09;18,61;17,90;-16,31;18,01;-4,37;2,01;-6,60;18,61;17,90;0,19;0,44;-1,28;2,39;650981
IF_IP2_R4_8502005_DIS1_82, SUBCASE 1, Case 1 Time 1.;45;-16,13;-13,61;-3,51;-1,96;-5,76;1,33;2,44;16,92;19,11;1,88;2,11;6,05;20,04;17,63;16,92;19,11;-3,51;2,11;6,05;20,04;17,63;0,56;1,01;-1,28;2,35;650981
IF_IP2_R4_8502005_DIS1_-55, SUBCASE 1, Case 1 Time 1.;44;-20,08;-19,22;-5,45;-1,45;-6,52;0,52;1,36;11,37;14,80;2,26;2,58;5,43;20,15;20,17;-20,08;-19,22;-5,45;2,58;-6,52;20,15;20,17;-0,07;-1,19;-1,77;2,34;650933
IF_TO_R4_8502005_FS11_-55, SUBCASE 1, Case 1 Time 1.;29;-17,80;-16,84;-5,50;-1,28;-7,14;0,47;1,52;10,91;15,61;2,81;2,37;4,95;17,88;18,01;-17,80;-16,84;-5,50;2,37;-7,14;17,88;18,01;-0,27;-0,58;-1,31;2,27;650981
IF_IP2_R4_8502005_FS11_-55, SUBCASE 1, Case 1 Time 1.;26;-19,03;-18,09;-5,57;-1,29;-6,97;0,30;0,96;11,42;15,55;2,62;2,51;5,21;19,11;19,15;-19,03;-18,09;-5,57;2,51;-6,97;19,11;19,15;-0,18;-0,82;-1,53;2,26;650929
IF_IP2_R4_8502005_DIS1_23, SUBCASE 1, Case 1 Time 1.;43;-16,96;-16,00;-4,19;-1,49;-6,03;1,23;1,53;14,53;17,01;1,97;2,02;5,08;17,56;17,06;-16,96;17,01;-4,19;2,02;-6,03;17,56;17,06;0,29;0,08;-1,51;2,23;650981
IF_IP1_R1_8502005_FS11_-55, SUBCASE 1, Case 1 Time 1.;23;-16,47;-16,12;-6,43;-1,63;-2,33;1,11;2,69;5,99;5,00;0,82;2,35;4,13;16,53;16,64;-16,47;-16,12;-6,43;2,35;4,13;16,53;16,64;0,21;-2,52;-1,97;1,87;650939
IF_IP1_R1_8502005_FS11_23, SUBCASE 1, Case 1 Time 1.;22;-13,62;-13,16;-4,74;-1,27;-2,09;0,19;0,26;8,93;8,23;0,63;1,64;3,50;13,62;13,60;-13,62;-13,16;-4,74;1,64;3,50;13,62;13,60;0,58;-1,25;-1,74;1,63;650939
IF_IP1_R1_8502005_FS11_82, SUBCASE 1, Case 1 Time 1.;24;-12,45;-10,90;-4,12;-1,74;-2,41;1,27;1,96;11,52;10,66;1,30;1,47;4,53;12,46;13,06;-12,45;-10,90;-4,12;-1,74;4,53;12,46;13,06;0,84;-0,32;-1,53;1,57;650939
IF_LD_JAM2M_IN_-55, SUBCASE 1, Case 1 Time 1.;107;-5,56;-6,09;-2,20;-2,70;-3,10;0,05;1,80;4,35;2,24;1,72;2,21;2,68;7,12;8,71;-5,56;-6,09;-2,20;-2,70;-3,10;7,12;8,71;0,54;-1,92;-0,20;1,16;650898
IF_TO_JAM2M_IN_-55, SUBCASE 1, Case 1 Time 1.;101;-4,13;-4,93;-1,94;-2,49;-2,78;0,18;1,97;2,96;1,74;1,73;1,60;2,54;5,75;7,08;-4,13;-4,93;-1,94;-2,49;-2,78;5,75;7,08;0,20;-1,65;-0,37;0,94;650898
IF_IP1_JAM2M_OUT_82, SUBCASE 1, Case 1 Time 1.;93;-3,19;-1,52;-1,21;-1,74;-2,42;0,28;1,13;4,53;5,03;2,26;2,61;2,96;5,49;6,95;4,53;5,03;2,26;2,61;2,96;5,49;6,95;-0,57;1,63;0,50;0,93;650898
IF_IP2_JAM2M_IN_-55, SUBCASE 1, Case 1 Time 1.;95;-4,97;-5,29;-2,08;-2,51;-2,78;0,33;1,91;2,64;1,72;1,69;1,50;2,56;5,47;6,80;-4,97;-5,29;-2,08;-2,51;-2,78;5,47;6,80;0,16;-1,61;-0,44;0,91;650898
IF_IP1_JAM2M_OUT_-55, SUBCASE 1, Case 1 Time 1.;92;-4,24;-5,30;-2,30;-1,27;-1,08;0,72;1,32;1,52;3,00;2,16;0,88;0,98;5,52;6,23;-4,24;-5,30;-2,30;-1,27;-1,08;5,52;6,23;-1,18;-0,58;0,03;0,83;650886
IF_TO_JAM2M_OUT_-55, SUBCASE 1, Case 1 Time 1.;104;-4,31;-5,23;-1,89;-1,24;-1,35;0,71;1,84;1,65;2,81;1,97;0,87;1,17;5,43;6,13;-4,31;-5,23;1,97;-1,24;-1,35;5,43;6,13;-1,01;-0,77;0,00;0,82;650886
IF_TO_JAM2M_OUT_82, SUBCASE 1, Case 1 Time 1.;105;-2,65;-1,41;-1,14;-1,50;-2,16;0,13;1,11;4,23;4,60;1,73;2,23;2,52;4,87;6,07;4,23;4,60;1,73;2,23;2,52;4,87;6,07;-0,40;1,43;0,43;0,81;650898
IF_IP2_JAM2M_OUT_82, SUBCASE 1, Case 1 Time 1.;99;-2,76;-1,44;-1,41;-1,45;-2,09;0,26;1,56;3,47;4,02;1,52;2,12;2,39;4,87;6,05;3,47;4,02;1,52;2,12;2,39;4,87;6,05;-0,28;1,33;0,25;0,81;650898
IF_IP2_JAM2M_OUT_-55, SUBCASE 1, Case 1 Time 1.;98;-4,15;-5,04;-2,13;-1,07;-1,05;0,42;1,63;1,51;1,97;1,75;0,88;1,21;5,26;6,01;-4,15;-5,04;-2,13;-1,07;1,21;5,26;6,01;-0,90;-0,87;-0,16;0,80;650886
IF_IP2_JAM2M_IN_82, SUBCASE 1, Case 1 Time 1.;96;-1,34;-2,20;-1,25;-0,72;-0,83;0,74;1,27;3,42;4,32;1,54;0,99;1,07;4,50;5,07;3,42;4,32;1,54;0,99;1,07;4,50;5,07;0,78;0,63;-0,01;0,68;650886
IF_TO_JAM2M_IN_82, SUBCASE 1, Case 1 Time 1.;102;-1,18;-1,88;-1,31;-0,71;-0,77;0,53;1,33;3,24;4,03;1,68;0,93;0,80;4,20;4,74;3,24;4,03;1,68;0,93;0,80;4,20;4,74;0,81;0,60;0,06;0,63;650886
IF_LD_JAM2M_IN_82, SUBCASE 1, Case 1 Time 1.;108;-0,87;-2,15;-2,05;-0,78;-0,61;0,25;0,86;2,86;3,39;2,40;0,92;0,87;3,39;4,61;2,86;3,39;2,40;0,92;0,87;3,39;4,61;1,15;0,34;0,22;0,61;650967
IF_IP1_JAM2M_OUT_23, SUBCASE 1, Case 1 Time 1.;91;-2,22;-0,65;-0,95;-1,06;-1,22;0,05;0,73;2,30;2,70;1,76;1,40;1,60;2,75;4,03;2,30;2,70;1,76;1,40;1,60;2,75;4,03;-0,80;0,69;0,23;0,54;650893
IF_LD_JAM2M_IN_23, SUBCASE 1, Case 1 Time 1.;106;-2,04;-3,08;-1,23;-1,14;-1,35;0,36;0,91;2,86;1,05;1,36;1,33;1,21;3,11;3,81;2,86;-3,08;1,36;1,33;-1,35;3,11;3,81;0,87;-0,59;0,04;0,51;650902
IF_TO_JAM2M_OUT_23, SUBCASE 1, Case 1 Time 1.;103;-1,74;-0,69;-0,58;-0,82;-1,01;0,11;0,71;2,18;2,44;1,25;1,03;1,17;2,46;3,09;2,18;2,44;1,25;1,03;1,17;2,46;3,09;-0,64;0,50;0,25;0,41;650935
IF_IP2_JAM2M_IN_23, SUBCASE 1, Case 1 Time 1.;94;-2,10;-2,31;-1,34;-0,95;-1,03;0,14;0,60;1,47;1,08;0,53;0,63;0,95;2,33;2,84;-2,10;-2,31;-1,34;-0,95;-1,03;2,33;2,84;0,50;-0,30;-0,19;0,36;650935
IF_IP2_JAM2M_OUT_23, SUBCASE 1, Case 1 Time 1.;97;-1,51;-0,34;-0,83;-0,77;-0,69;0,17;0,47;0,81;1,30;1,04;0,91;1,04;1,70;2,53;-1,51;1,30;1,04;0,91;1,04;1,70;2,53;-0,53;0,40;0,07;0,34;650893
IF_TO_JAM2M_IN_23, SUBCASE 1, Case 1 Time 1.;100;-1,26;-1,52;-1,14;-0,92;-1,03;0,05;0,39;1,36;0,46;0,64;0,72;0,77;1,57;2,46;1,36;-1,52;-1,14;-0,92;-1,03;1,57;2,46;0,54;-0,33;-0,12;0,33;650935
Ref CID;Coord Material;;;;;;;;;;;;;;;;;;;;;;;;;;
