LC_Name;LC_ID;qxMin;qyMin;qxyMin;qxzMin;qyzMin;qshearMin;qvonmisesMin;qxMax;qyMax;qxyMax;qxzMax;qyzMax;qshearMax;qvonmisesMax;qxAbsMax;qyAbsMax;qxyAbsMax;qxzAbsMax;qyzAbsMax;qshearAbsMax;qvonmisesAbsMax;qxAverage;qyAverage;qxyAverage;sigmaVonMisesMax;CriticalElemID
IF_CR_R1_8501009_JAM2_-55, SUBCASE 1, Case 1 Time 1.;74;-158,50;-153,98;-75,80;-13,79;-27,82;2,35;4,83;153,50;138,95;34,84;13,47;27,58;161,13;154,11;-158,50;-153,98;-75,80;-13,79;-27,82;161,13;154,11;5,71;1,50;-22,52;17,12;653045
IF_CR_R1_8501009_JAM2_23, SUBCASE 1, Case 1 Time 1.;73;-155,23;-151,37;-74,36;-13,59;-28,16;3,38;7,23;155,29;140,47;35,67;12,89;27,27;158,40;151,59;155,29;-151,37;-74,36;-13,59;-28,16;158,40;151,59;7,22;1,93;-22,44;16,84;653045
IF_CR_R1_8501009_-55, SUBCASE 1, Case 1 Time 1.;2;-155,03;-150,64;-74,52;-14,02;-27,41;2,59;5,57;152,27;137,25;34,26;13,47;27,00;157,63;150,93;-155,03;-150,64;-74,52;-14,02;-27,41;157,63;150,93;5,95;1,59;-21,94;16,77;653045
IF_CR_R1_8501009_JAM2_82, SUBCASE 1, Case 1 Time 1.;75;-152,85;-149,50;-73,30;-13,43;-28,42;4,34;10,38;156,68;141,65;36,30;12,50;27,04;160,22;149,81;156,68;-149,50;-73,30;-13,43;-28,42;160,22;149,81;8,39;2,24;-22,57;16,65;653045
IF_CR_R1_8501009_23, SUBCASE 1, Case 1 Time 1.;1;-152,21;-148,47;-73,24;-13,79;-27,81;3,55;7,61;154,22;138,99;35,17;12,88;26,76;157,42;148,81;154,22;-148,47;-73,24;-13,79;-27,81;157,42;148,81;7,43;2,07;-21,79;16,53;653045
IF_CR_R1_8501009_82, SUBCASE 1, Case 1 Time 1.;3;-150,16;-146,92;-72,30;-13,61;-28,10;4,70;10,95;155,73;140,34;35,86;12,49;26,59;159,35;147,33;155,73;-146,92;-72,30;-13,61;-28,10;159,35;147,33;8,57;2,31;-22,12;16,37;653045
IF_IP2_R4_8502005_JAM2M_IN_-55, SUBCASE 1, Case 1 Time 1.;113;-119,12;-115,12;-58,22;-10,96;-18,81;0,16;7,26;97,04;90,42;24,80;7,15;20,65;121,01;114,50;-119,12;-115,12;-58,22;-10,96;20,65;121,01;114,50;0,44;-0,31;-17,78;12,72;653045
IF_IP2_R4_8502005_DIS3_-55, SUBCASE 1, Case 1 Time 1.;62;-116,99;-113,40;-55,94;-9,79;-20,24;2,12;2,56;109,11;99,78;25,62;9,54;20,40;119,04;113,50;-116,99;-113,40;-55,94;-9,79;20,40;119,04;113,50;3,34;0,92;-16,76;12,61;653045
IF_IP2_R4_8502005_JAM2M_IN_23, SUBCASE 1, Case 1 Time 1.;112;-116,50;-113,14;-57,72;-10,55;-19,27;1,88;4,92;99,47;92,46;25,74;7,60;20,44;117,83;112,71;-116,50;-113,14;-57,72;-10,55;20,44;117,83;112,71;2,04;0,13;-17,80;12,52;653045
IF_IP2_R4_8502005_DIS3_23, SUBCASE 1, Case 1 Time 1.;61;-114,49;-111,53;-54,91;-9,39;-20,68;2,25;4,81;111,32;101,76;26,56;8,96;20,21;115,95;111,69;-114,49;-111,53;-54,91;-9,39;-20,68;115,95;111,69;4,84;1,33;-16,80;12,41;653045
IF_IP2_R4_8502005_JAM2M_IN_82, SUBCASE 1, Case 1 Time 1.;114;-114,58;-111,72;-57,32;-10,22;-19,62;0,49;4,59;101,35;94,03;26,45;8,00;20,28;115,55;111,48;-114,58;-111,72;-57,32;-10,22;20,28;115,55;111,48;3,18;0,41;-18,01;12,39;653045
IF_IP2_R4_8502005_DIS3_82, SUBCASE 1, Case 1 Time 1.;63;-112,65;-110,19;-54,16;-9,06;-21,00;3,22;6,95;113,02;103,29;27,28;8,57;20,06;115,48;110,45;113,02;-110,19;-54,16;-9,06;-21,00;115,48;110,45;5,99;1,63;-17,02;12,27;653045
IF_IP2_R4_8502005_JAM2_-55, SUBCASE 1, Case 1 Time 1.;80;-108,76;-105,30;-51,79;-9,42;-18,16;1,39;3,97;97,10;89,49;23,52;8,03;18,95;110,61;105,24;-108,76;-105,30;-51,79;-9,42;18,95;110,61;105,24;2,25;0,37;-15,71;11,69;653045
IF_IP2_R4_8502005_JAM2_23, SUBCASE 1, Case 1 Time 1.;79;-106,24;-103,43;-50,79;-9,01;-18,62;1,94;3,21;99,60;91,59;24,48;7,46;18,76;107,52;103,47;-106,24;-103,43;-50,79;-9,01;18,76;107,52;103,47;3,81;0,81;-15,80;11,50;653045
IF_IP2_R4_8502005_JAM2_82, SUBCASE 1, Case 1 Time 1.;81;-104,40;-102,08;-50,04;-8,68;-18,97;2,34;5,62;101,52;93,20;25,21;7,58;18,61;105,31;102,25;-104,40;-102,08;-50,04;-8,68;-18,97;105,31;102,25;4,96;1,10;-15,96;11,36;653045
IF_CR_R1_8501009_DIS3_-55, SUBCASE 1, Case 1 Time 1.;56;-105,01;-101,82;-50,81;-9,06;-18,23;1,11;2,71;100,34;90,79;22,79;9,09;18,30;106,95;102,19;-105,01;-101,82;-50,81;9,09;18,30;106,95;102,19;3,38;0,72;-14,93;11,35;653045
IF_TO_R4_8502005_DIS3_-55, SUBCASE 1, Case 1 Time 1.;65;-104,46;-101,18;-50,08;-8,87;-17,99;2,00;2,73;96,28;88,25;22,89;8,43;18,27;106,35;101,34;-104,46;-101,18;-50,08;-8,87;18,27;106,35;101,34;2,73;0,72;-14,94;11,26;653045
IF_CR_R1_8501009_DIS1_-55, SUBCASE 1, Case 1 Time 1.;38;-104,16;-101,02;-50,37;-8,98;-17,95;1,45;3,63;98,36;88,93;22,02;9,06;18,04;106,12;101,29;-104,16;-101,02;-50,37;9,06;18,04;106,12;101,29;3,07;0,56;-15,02;11,25;653056
IF_TO_R4_8502005_JAM2M_IN_INSF_-55, SUBCASE 1, Case 1 Time 1.;119;-105,35;-101,71;-52,02;-9,91;-16,52;0,40;6,14;84,38;78,74;22,03;6,29;18,33;107,07;101,25;-105,35;-101,71;-52,02;-9,91;18,33;107,07;101,25;0,03;-0,38;-15,70;11,25;653045
IF_IP2_R4_8502005_-55, SUBCASE 1, Case 1 Time 1.;8;-103,89;-100,64;-49,72;-8,79;-17,70;1,82;2,43;95,86;87,97;22,80;8,17;18,13;105,70;100,80;-103,89;-100,64;-49,72;-8,79;18,13;105,70;100,80;2,80;0,61;-14,82;11,20;653045
IF_CR_R1_8501009_DIS3_23, SUBCASE 1, Case 1 Time 1.;55;-102,41;-99,86;-49,60;-8,82;-18,64;2,07;5,25;102,41;92,65;23,70;8,50;18,09;104,52;100,36;102,41;-99,86;-49,60;-8,82;-18,64;104,52;100,36;4,85;1,13;-14,95;11,15;653056
IF_TO_R4_8502005_JAM2M_IN_INSF_23, SUBCASE 1, Case 1 Time 1.;118;-103,00;-99,99;-51,70;-9,53;-17,01;1,62;5,50;86,88;80,85;23,01;6,74;18,16;104,15;99,70;-103,00;-99,99;-51,70;-9,53;18,16;104,15;99,70;1,63;0,05;-15,85;11,08;653045
IF_TO_R4_8502005_DIS3_23, SUBCASE 1, Case 1 Time 1.;64;-101,94;-99,29;-49,07;-8,47;-18,42;1,88;4,14;98,46;90,20;23,83;7,84;18,07;103,23;99,50;-101,94;-99,29;-49,07;-8,47;-18,42;103,23;99,50;4,27;1,14;-15,10;11,06;653045
IF_CR_R1_8501009_DIS1_23, SUBCASE 1, Case 1 Time 1.;37;-101,57;-99,07;-49,17;-8,74;-18,36;1,60;5,57;100,39;90,76;22,92;8,47;17,83;102,93;99,49;-101,57;-99,07;-49,17;-8,74;-18,36;102,93;99,49;4,53;0,96;-15,04;11,05;653056
IF_IP2_R4_8502005_23, SUBCASE 1, Case 1 Time 1.;7;-101,60;-98,99;-48,81;-8,41;-18,18;1,96;4,28;98,35;90,14;23,79;7,59;17,97;102,83;99,21;-101,60;-98,99;-48,81;-8,41;-18,18;102,83;99,21;4,32;1,03;-14,95;11,02;653045
IF_CR_R1_8501009_DIS3_82, SUBCASE 1, Case 1 Time 1.;57;-100,49;-98,43;-48,71;-8,63;-18,95;3,88;8,63;104,01;94,08;24,40;8,11;17,92;106,53;99,03;104,01;-98,43;-48,71;-8,63;-18,95;106,53;99,03;6,00;1,43;-15,16;11,00;653056
IF_TO_R4_8502005_JAM2M_IN_INSF_82, SUBCASE 1, Case 1 Time 1.;120;-101,27;-98,74;-51,42;-9,22;-17,37;0,18;4,86;88,81;82,48;23,75;7,15;18,03;102,07;98,66;-101,27;-98,74;-51,42;-9,22;18,03;102,07;98,66;2,73;0,32;-16,00;10,96;653045
IF_TO_R4_8502005_DIS3_82, SUBCASE 1, Case 1 Time 1.;66;-100,09;-97,93;-48,31;-8,14;-18,74;3,20;6,36;100,25;91,71;24,54;7,45;17,91;102,47;98,24;100,25;-97,93;-48,31;-8,14;-18,74;102,47;98,24;5,38;1,43;-15,19;10,92;653045
IF_CR_R1_8501009_DIS1_82, SUBCASE 1, Case 1 Time 1.;39;-99,67;-97,67;-48,28;-8,55;-18,66;3,63;9,04;101,95;92,16;23,60;8,07;17,66;104,54;98,16;101,95;-97,67;-48,28;-8,55;-18,66;104,54;98,16;5,67;1,25;-15,27;10,91;653056
IF_IP2_R4_8502005_82, SUBCASE 1, Case 1 Time 1.;9;-99,93;-97,80;-48,14;-8,10;-18,53;3,16;6,72;100,31;91,80;24,55;7,36;17,85;102,40;98,13;100,31;-97,80;-48,14;-8,10;-18,53;102,40;98,13;5,46;1,33;-15,14;10,90;653045
IF_IP2_R4_8502005_JAM2M_OUT_-55, SUBCASE 1, Case 1 Time 1.;116;-100,11;-97,07;-48,48;-8,65;-17,45;0,79;2,16;96,77;87,47;22,26;8,51;17,47;101,91;97,49;-100,11;-97,07;-48,48;-8,65;17,47;101,91;97,49;3,42;0,84;-14,09;10,83;653045
IF_TO_R4_8502005_JAM2_-55, SUBCASE 1, Case 1 Time 1.;83;-99,56;-96,32;-47,52;-8,74;-16,62;1,16;4,56;88,35;81,45;21,73;7,22;17,40;101,28;96,34;-99,56;-96,32;-47,52;-8,74;17,40;101,28;96,34;1,90;0,35;-14,30;10,70;653045
IF_IP2_R4_8502005_JAM2M_OUT_23, SUBCASE 1, Case 1 Time 1.;115;-97,70;-95,30;-47,38;-8,48;-17,91;2,35;5,15;99,23;89,63;23,23;7,94;17,29;101,23;95,87;99,23;-95,30;-47,38;-8,48;-17,91;101,23;95,87;4,94;1,27;-14,28;10,65;653056
IF_IP2_R4_8502005_JAM2M_OUT_82, SUBCASE 1, Case 1 Time 1.;117;-95,95;-94,04;-46,58;-8,34;-18,26;4,21;8,59;101,13;91,30;23,97;7,57;17,15;103,56;95,12;101,13;-94,04;-46,58;-8,34;-18,26;103,56;95,12;6,11;1,58;-14,36;10,57;653101
IF_TO_R4_8502005_JAM2_23, SUBCASE 1, Case 1 Time 1.;82;-97,12;-94,52;-46,55;-8,34;-17,09;1,73;2,84;90,90;83,60;22,69;6,65;17,21;98,27;94,64;-97,12;-94,52;-46,55;-8,34;17,21;98,27;94,64;3,47;0,79;-14,46;10,52;653045
IF_TO_R4_8502005_JAM2_82, SUBCASE 1, Case 1 Time 1.;84;-95,34;-93,22;-45,83;-8,01;-17,45;2,52;5,28;92,86;85,25;23,43;7,00;17,07;96,12;93,48;-95,34;-93,22;-45,83;-8,01;-17,45;96,12;93,48;4,61;1,08;-14,57;10,39;653045
IF_LD_R4_8502001_DIS3_-55, SUBCASE 1, Case 1 Time 1.;71;-95,80;-92,69;-45,97;-8,32;-16,30;1,52;3,64;86,33;79,38;20,96;7,47;16,79;97,55;92,86;-95,80;-92,69;-45,97;-8,32;16,79;97,55;92,86;2,08;0,49;-13,68;10,32;653045
IF_TO_R4_8502005_-55, SUBCASE 1, Case 1 Time 1.;11;-95,45;-92,39;-45,76;-8,20;-16,25;1,57;2,99;87,45;80,34;21,13;7,37;16,70;97,14;92,60;-95,45;-92,39;-45,76;-8,20;16,70;97,14;92,60;2,40;0,58;-13,54;10,29;653045
IF_LD_R4_8502001_DIS3_23, SUBCASE 1, Case 1 Time 1.;70;-93,34;-90,87;-44,98;-7,91;-16,74;1,53;3,31;88,74;81,40;21,91;6,88;16,60;94,51;91,09;-93,34;-90,87;-44,98;-7,91;-16,74;94,51;91,09;3,60;0,90;-13,78;10,12;653045
IF_TO_R4_8502005_23, SUBCASE 1, Case 1 Time 1.;10;-93,21;-90,78;-44,87;-7,82;-16,74;1,82;3,76;90,05;82,55;22,13;6,79;16,55;94,32;91,05;-93,21;-90,78;-44,87;-7,82;-16,74;94,32;91,05;3,95;1,01;-13,74;10,12;653045
IF_LD_R4_8502001_-55, SUBCASE 1, Case 1 Time 1.;17;-93,51;-90,44;-44,76;-8,22;-15,80;1,11;4,47;84,03;77,36;20,85;6,83;16,40;95,14;90,61;-93,51;-90,44;-44,76;-8,22;16,40;95,14;90,61;1,98;0,50;-13,23;10,07;653045
IF_TO_R4_8502005_82, SUBCASE 1, Case 1 Time 1.;12;-91,57;-89,63;-44,21;-7,51;-17,10;3,24;6,14;92,04;84,24;22,89;6,82;16,43;93,95;90,02;92,04;-89,63;-44,21;-7,51;-17,10;93,95;90,02;5,07;1,29;-13,86;10,00;653045
IF_TO_R4_8502005_JAM2M_OUT_-55, SUBCASE 1, Case 1 Time 1.;122;-92,31;-89,43;-44,74;-7,83;-16,06;0,99;1,55;88,44;80,11;20,69;7,73;16,16;94,00;89,93;-92,31;-89,43;-44,74;-7,83;16,16;94,00;89,93;2,97;0,77;-12,91;9,99;653056
IF_LD_R4_8502001_DIS3_82, SUBCASE 1, Case 1 Time 1.;72;-91,55;-89,56;-44,25;-7,59;-17,07;3,01;5,65;90,59;82,96;22,63;6,78;16,45;92,54;89,90;-91,55;-89,56;-44,25;-7,59;-17,07;92,54;89,90;4,74;1,20;-13,95;9,99;653045
IF_LD_R4_8502001_23, SUBCASE 1, Case 1 Time 1.;16;-91,49;-89,04;-43,97;-7,85;-16,33;1,71;3,10;86,85;79,76;21,90;6,30;16,28;92,55;89,29;-91,49;-89,04;-43,97;-7,85;-16,33;92,55;89,29;3,53;0,93;-13,44;9,92;653045
IF_LD_R4_8502001_82, SUBCASE 1, Case 1 Time 1.;18;-90,01;-88,04;-43,39;-7,56;-16,72;3,02;5,49;89,02;81,61;22,70;6,71;16,19;90,74;88,43;-90,01;-88,04;-43,39;-7,56;-16,72;90,74;88,43;4,67;1,23;-13,61;9,83;653045
IF_TO_R4_8502005_JAM2M_OUT_23, SUBCASE 1, Case 1 Time 1.;121;-89,95;-87,70;-43,66;-7,66;-16,54;2,20;4,54;90,93;82,30;21,67;7,16;15,99;92,72;88,37;90,93;-87,70;-43,66;-7,66;-16,54;92,72;88,37;4,50;1,19;-13,10;9,82;653056
IF_LD_R4_8502001_JAM2_-55, SUBCASE 1, Case 1 Time 1.;89;-90,70;-87,73;-43,51;-7,90;-15,43;1,33;3,79;82,41;75,76;20,28;6,84;15,91;92,31;87,98;-90,70;-87,73;-43,51;-7,90;15,91;92,31;87,98;2,10;0,55;-12,77;9,78;653045
IF_TO_R4_8502005_JAM2M_OUT_82, SUBCASE 1, Case 1 Time 1.;123;-88,22;-86,46;-42,86;-7,53;-16,89;4,19;7,79;92,84;83,98;22,42;6,79;15,85;95,06;87,64;92,84;-86,46;-42,86;-7,53;-16,89;95,06;87,64;5,66;1,50;-13,19;9,74;653101
IF_LD_R4_8502001_JAM2_23, SUBCASE 1, Case 1 Time 1.;88;-88,70;-86,36;-42,75;-7,53;-15,97;1,74;3,38;85,36;78,27;21,34;6,30;15,80;89,75;86,68;-88,70;-86,36;-42,75;-7,53;-15,97;89,75;86,68;3,67;0,99;-12,97;9,63;653045
IF_LD_R4_8502001_JAM2_82, SUBCASE 1, Case 1 Time 1.;90;-87,26;-85,39;-42,18;-7,23;-16,38;3,34;5,82;87,62;80,20;22,15;6,55;15,72;89,42;85,84;87,62;-85,39;-42,18;-7,23;-16,38;89,42;85,84;4,83;1,29;-13,15;9,54;653045
IF_LD_R2_8502001_-55, SUBCASE 1, Case 1 Time 1.;14;-88,47;-85,45;-42,20;-7,99;-14,55;0,52;5,26;76,49;70,70;19,39;5,97;15,47;90,01;85,47;-88,47;-85,45;-42,20;-7,99;15,47;90,01;85,47;1,19;0,21;-12,66;9,50;653045
IF_LD_R4_8502001_JAM2M_INSF_-55, SUBCASE 1, Case 1 Time 1.;128;-88,47;-85,22;-45,12;-8,69;-13,39;0,89;5,43;66,92;62,81;18,54;5,12;15,41;89,92;84,88;-88,47;-85,22;-45,12;-8,69;15,41;89,92;84,88;-0,91;-0,61;-13,12;9,43;653045
IF_LD_R2_8502001_23, SUBCASE 1, Case 1 Time 1.;13;-86,51;-84,12;-41,45;-7,64;-15,10;1,60;2,80;79,38;73,16;20,45;5,88;15,37;87,49;84,24;-86,51;-84,12;-41,45;-7,64;15,37;87,49;84,24;2,77;0,64;-12,89;9,36;653045
IF_LD_R4_8502001_JAM2M_INSF_23, SUBCASE 1, Case 1 Time 1.;127;-86,52;-83,88;-45,18;-8,40;-13,94;1,13;6,46;69,63;65,16;19,67;5,66;15,33;87,41;83,76;-86,52;-83,88;-45,18;-8,40;15,33;87,41;83,76;0,64;-0,20;-13,35;9,31;653045
IF_LD_R2_8502001_82, SUBCASE 1, Case 1 Time 1.;15;-85,09;-83,17;-40,89;-7,34;-15,51;2,31;4,75;81,59;75,05;21,26;6,31;15,29;85,72;83,46;-85,09;-83,17;-40,89;-7,34;-15,51;85,72;83,46;3,89;0,93;-13,06;9,27;653045
IF_LD_R4_8502001_JAM2M_INSF_82, SUBCASE 1, Case 1 Time 1.;129;-84,88;-82,72;-44,94;-8,10;-14,32;0,49;6,20;71,62;66,84;20,43;6,07;15,21;85,44;82,84;-84,88;-82,72;-44,94;-8,10;15,21;85,44;82,84;1,78;0,08;-13,50;9,20;653045
IF_LD_R2_8502001_JAM2M_INSF_-55, SUBCASE 1, Case 1 Time 1.;125;-81,57;-78,50;-42,04;-8,14;-12,14;1,19;5,44;60,19;56,65;16,88;4,71;14,19;82,95;78,17;-81,57;-78,50;-42,04;-8,14;14,19;82,95;78,17;-1,20;-0,71;-12,16;8,69;653045
IF_LD_R2_8502001_JAM2_-55, SUBCASE 1, Case 1 Time 1.;86;-79,90;-77,20;-38,35;-7,05;-13,42;0,51;3,98;71,55;65,86;17,70;5,91;13,99;81,38;77,41;-79,90;-77,20;-38,35;-7,05;13,99;81,38;77,41;1,57;0,39;-11,27;8,60;653045
IF_LD_R2_8502001_JAM2M_INSF_23, SUBCASE 1, Case 1 Time 1.;124;-79,55;-77,09;-41,90;-7,79;-12,69;0,93;5,62;62,93;58,98;17,92;5,17;14,08;80,37;76,98;-79,55;-77,09;-41,90;-7,79;14,08;80,37;76,98;0,41;-0,28;-12,39;8,55;653045
IF_LD_R2_8502001_JAM2M_INSF_82, SUBCASE 1, Case 1 Time 1.;126;-77,97;-76,00;-41,66;-7,48;-13,09;0,64;5,81;65,04;60,77;18,69;5,59;13,96;78,47;76,13;-77,97;-76,00;-41,66;-7,48;13,96;78,47;76,13;1,52;-0,01;-12,53;8,46;653045
IF_LD_R2_8502001_JAM2_23, SUBCASE 1, Case 1 Time 1.;85;-77,86;-75,79;-37,56;-6,68;-13,96;1,51;2,76;74,44;68,32;18,75;5,37;13,87;78,76;76,06;-77,86;-75,79;-37,56;-6,68;-13,96;78,76;76,06;3,14;0,83;-11,51;8,45;653045
IF_LD_R2_8502001_JAM2_82, SUBCASE 1, Case 1 Time 1.;87;-76,37;-74,78;-36,97;-6,37;-14,36;3,14;5,34;76,65;70,20;19,54;5,79;13,77;78,23;75,19;76,65;-74,78;-36,97;-6,37;-14,36;78,23;75,19;4,28;1,13;-11,64;8,35;653045
IF_IP1_R1_8502005_JAM2_-55, SUBCASE 1, Case 1 Time 1.;77;-75,64;-73,13;-36,56;-6,41;-12,69;0,94;3,06;68,46;62,59;15,69;6,44;13,12;77,22;73,39;-75,64;-73,13;-36,56;6,44;13,12;77,22;73,39;1,57;0,18;-10,89;8,15;653056
IF_IP1_R1_8502005_JAM2_23, SUBCASE 1, Case 1 Time 1.;76;-72,81;-70,96;-35,27;-5,96;-13,07;1,08;3,41;70,46;64,34;16,55;5,85;12,86;73,78;71,35;-72,81;-70,96;-35,27;-5,96;-13,07;73,78;71,35;3,15;0,61;-11,11;7,93;653056
IF_IP1_R1_8502005_-55, SUBCASE 1, Case 1 Time 1.;5;-72,62;-70,22;-35,29;-6,08;-12,30;1,21;2,71;67,19;61,01;15,17;6,41;12,61;74,17;70,67;-72,62;-70,22;-35,29;6,41;12,61;74,17;70,67;1,74;0,25;-10,37;7,85;653056
IF_IP1_R1_8502005_JAM2_82, SUBCASE 1, Case 1 Time 1.;78;-70,73;-69,37;-34,39;-5,61;-13,35;3,12;6,79;71,99;65,68;17,20;5,45;12,65;73,79;69,83;71,99;-69,37;-34,39;-5,61;-13,35;73,79;69,83;4,23;0,88;-11,07;7,76;653056
IF_IP1_R1_8502005_23, SUBCASE 1, Case 1 Time 1.;4;-70,13;-68,38;-34,12;-5,83;-12,72;1,18;3,66;69,33;62,93;16,09;5,82;12,40;71,06;68,92;-70,13;-68,38;-34,12;-5,83;-12,72;71,06;68,92;3,30;0,67;-10,64;7,66;653056
IF_IP1_R1_8502005_82, SUBCASE 1, Case 1 Time 1.;6;-68,29;-67,03;-33,28;-5,65;-13,03;3,38;7,28;70,97;64,41;16,78;5,42;12,24;72,83;67,63;70,97;-67,03;-33,28;-5,65;-13,03;72,83;67,63;4,36;0,94;-10,64;7,51;653056
IF_LD_R2_8502001_DIS3_-55, SUBCASE 1, Case 1 Time 1.;68;-63,85;-61,53;-30,70;-5,82;-10,36;0,59;3,85;54,34;50,20;13,59;4,60;11,14;65,17;61,66;-63,85;-61,53;-30,70;-5,82;11,14;65,17;61,66;0,53;0,01;-9,07;6,85;653045
IF_IP1_R1_8502005_JAM2M_OUT_82, SUBCASE 1, Case 1 Time 1.;111;-53,70;-53,50;-27,26;-6,87;-11,18;1,58;8,64;66,06;57,19;13,96;5,65;9,68;68,70;60,25;66,06;57,19;-27,26;-6,87;-11,18;68,70;60,25;5,30;1,25;-8,12;6,69;653102
IF_LD_R2_8502001_DIS3_23, SUBCASE 1, Case 1 Time 1.;67;-61,48;-59,80;-29,73;-5,42;-10,82;0,97;1,94;56,79;52,26;14,55;4,19;10,95;62,20;59,98;-61,48;-59,80;-29,73;-5,42;10,95;62,20;59,98;2,09;0,44;-9,30;6,66;653056
IF_IP1_R1_8502005_JAM2M_OUT_23, SUBCASE 1, Case 1 Time 1.;109;-55,58;-54,43;-28,15;-7,03;-10,89;2,48;5,90;64,40;55,74;13,27;6,04;9,86;66,52;59,01;64,40;55,74;-28,15;-7,03;-10,89;66,52;59,01;4,14;0,95;-7,92;6,56;653102
IF_LD_R2_8502001_DIS3_82, SUBCASE 1, Case 1 Time 1.;69;-59,73;-58,53;-29,01;-5,10;-11,16;2,74;4,46;58,66;53,83;15,27;4,59;10,81;60,11;58,86;-59,73;-58,53;-29,01;-5,10;-11,16;60,11;58,86;3,19;0,72;-9,37;6,54;653045
IF_IP1_R1_8502005_JAM2M_OUT_-55, SUBCASE 1, Case 1 Time 1.;110;-58,13;-56,35;-29,36;-7,23;-10,49;1,53;3,85;62,23;53,83;12,39;6,62;10,09;63,72;57,74;62,23;-56,35;-29,36;-7,23;-10,49;63,72;57,74;2,69;0,54;-7,87;6,42;653056
IF_LD_R2_8502001_DIS1_INSF_-55, SUBCASE 1, Case 1 Time 1.;50;-54,59;-52,52;-26,29;-5,04;-8,69;0,69;3,28;45,52;42,10;11,46;3,87;9,50;55,80;52,66;-54,59;-52,52;-26,29;-5,04;9,50;55,80;52,66;0,18;-0,09;-7,69;5,85;653045
IF_LD_R2_8502001_DIS1_INSF_23, SUBCASE 1, Case 1 Time 1.;49;-51,52;-50,10;-24,98;-4,58;-9,02;0,78;1,77;47,27;43,53;12,25;3,52;9,19;52,10;50,32;-51,52;-50,10;-24,98;-4,58;9,19;52,10;50,32;1,67;0,32;-7,71;5,59;653056
IF_LD_R2_8502001_DIS1_INSF_82, SUBCASE 1, Case 1 Time 1.;51;-49,47;-48,55;-24,11;-4,24;-9,30;2,83;4,34;48,85;44,83;12,90;3,90;8,99;49,91;48,89;-49,47;-48,55;-24,11;-4,24;-9,30;49,91;48,89;2,79;0,60;-7,85;5,43;653045
IF_IP1_R1_8502005_DIS3_-55, SUBCASE 1, Case 1 Time 1.;59;-49,11;-47,29;-23,93;-4,25;-8,01;0,63;2,90;43,46;39,65;9,84;4,38;8,48;50,37;47,70;-49,11;-47,29;-23,93;4,38;8,48;50,37;47,70;0,60;-0,03;-6,92;5,30;653056
IF_IP1_R1_8502005_DIS1_-55, SUBCASE 1, Case 1 Time 1.;41;-48,60;-46,81;-23,65;-4,18;-7,89;0,54;3,12;42,60;38,85;9,52;4,34;8,34;49,87;47,14;-48,60;-46,81;-23,65;4,34;8,34;49,87;47,14;0,49;-0,06;-6,92;5,24;653056
IF_LD_R2_8502001_FS11_-55, SUBCASE 1, Case 1 Time 1.;32;-38,00;-36,16;-25,00;-5,15;-4,64;2,27;9,63;21,51;24,02;10,29;4,83;7,23;38,66;46,68;-38,00;-36,16;-25,00;-5,15;7,23;38,66;46,68;-2,19;-0,86;-6,22;5,19;653062
IF_IP1_R1_8502005_DIS3_23, SUBCASE 1, Case 1 Time 1.;58;-46,70;-45,53;-22,78;-3,84;-8,45;0,69;2,37;45,64;41,62;10,76;3,78;8,28;47,32;45,99;-46,70;-45,53;-22,78;-3,84;-8,45;47,32;45,99;2,14;0,39;-7,17;5,11;653056
IF_IP1_R1_8502005_DIS1_23, SUBCASE 1, Case 1 Time 1.;40;-46,18;-45,02;-22,49;-3,77;-8,32;0,55;2,45;44,73;40,78;10,42;3,74;8,13;46,79;45,41;-46,18;-45,02;-22,49;-3,77;-8,32;46,79;45,41;2,02;0,36;-7,19;5,05;653056
IF_LD_R2_8502001_FS11_23, SUBCASE 1, Case 1 Time 1.;31;-35,89;-34,68;-24,72;-5,27;-5,15;2,17;4,47;24,26;25,02;10,00;5,00;7,06;36,06;45,13;-35,89;-34,68;-24,72;-5,27;7,06;36,06;45,13;-0,62;-0,43;-6,40;5,01;653062
IF_IP1_R1_8502005_DIS3_82, SUBCASE 1, Case 1 Time 1.;60;-44,92;-44,30;-22,03;-3,52;-8,76;2,60;5,92;47,31;43,12;11,46;3,58;8,12;48,74;44,82;47,31;-44,30;-22,03;3,58;-8,76;48,74;44,82;3,22;0,67;-7,22;4,98;653101
IF_IP1_R1_8502005_DIS1_82, SUBCASE 1, Case 1 Time 1.;42;-44,39;-43,73;-21,74;-3,47;-8,63;2,53;5,75;46,36;42,25;11,11;3,53;7,97;47,83;44,15;46,36;-43,73;-21,74;3,53;-8,63;47,83;44,15;3,09;0,63;-7,23;4,91;653056
IF_LD_R2_8502001_FS11_82, SUBCASE 1, Case 1 Time 1.;33;-34,34;-33,61;-24,48;-5,45;-5,53;0,87;4,11;26,37;26,31;10,56;5,12;6,96;34,35;44,10;-34,34;-33,61;-24,48;-5,45;6,96;34,35;44,10;0,51;-0,14;-6,59;4,90;653062
IF_LD_R4_8502001_DIS1_INSF_-55, SUBCASE 1, Case 1 Time 1.;53;-36,45;-34,90;-17,64;-3,45;-5,57;0,80;2,90;29,67;27,45;7,53;2,65;6,33;37,44;35,20;-36,45;-34,90;-17,64;-3,45;6,33;37,44;35,20;-0,21;-0,16;-4,87;3,91;653056
IF_LD_R4_8502001_DIS1_INSF_23, SUBCASE 1, Case 1 Time 1.;52;-34,09;-33,17;-16,66;-3,05;-6,02;0,59;1,65;32,06;29,46;8,46;2,38;6,13;34,44;33,53;-34,09;-33,17;-16,66;-3,05;6,13;34,44;33,53;1,32;0,26;-5,08;3,73;653056
IF_LD_R4_8502001_DIS1_INSF_82, SUBCASE 1, Case 1 Time 1.;54;-32,35;-32,19;-15,93;-2,73;-6,35;1,70;4,49;33,89;31,01;9,18;2,77;5,98;34,74;32,58;33,89;-32,19;-15,93;2,77;-6,35;34,74;32,58;2,42;0,54;-5,18;3,62;653101
IF_LD_R4_8502001_FS11_-55, SUBCASE 1, Case 1 Time 1.;35;-29,86;-28,40;-16,71;-3,57;-3,90;1,66;5,82;19,76;19,78;6,56;2,39;5,35;30,60;31,20;-29,86;-28,40;-16,71;-3,57;5,35;30,60;31,20;-1,21;-0,52;-4,30;3,47;653062
IF_LD_R4_8502001_FS11_23, SUBCASE 1, Case 1 Time 1.;34;-27,77;-26,94;-16,44;-3,18;-4,41;0,24;2,43;22,49;21,42;7,55;2,40;5,20;27,95;29,67;-27,77;-26,94;-16,44;-3,18;5,20;27,95;29,67;0,33;-0,10;-4,54;3,30;653062
IF_LD_R4_8502001_FS11_82, SUBCASE 1, Case 1 Time 1.;36;-26,24;-25,97;-16,20;-3,05;-4,79;1,52;4,16;24,58;23,07;8,30;2,52;5,08;26,25;28,75;-26,24;-25,97;-16,20;-3,05;5,08;26,25;28,75;1,47;0,19;-4,67;3,19;653062
IF_TO_R4_8502005_DIS1_-55, SUBCASE 1, Case 1 Time 1.;47;-24,45;-23,26;-11,89;-2,37;-3,38;1,21;3,38;18,70;17,38;4,62;1,85;4,19;25,34;23,56;-24,45;-23,26;-11,89;-2,37;4,19;25,34;23,56;-0,57;-0,30;-3,09;2,62;653045
IF_TO_R4_8502005_FS11_-55, SUBCASE 1, Case 1 Time 1.;29;-24,48;-23,25;-11,93;-2,62;-3,22;1,43;4,14;17,61;16,82;4,91;1,66;4,28;25,28;23,46;-24,48;-23,25;-11,93;-2,62;4,28;25,28;23,46;-0,78;-0,40;-3,20;2,61;653045
IF_IP2_R4_8502005_FS11_-55, SUBCASE 1, Case 1 Time 1.;26;-23,89;-22,71;-11,55;-2,44;-3,11;1,37;3,76;17,62;16,61;4,57;1,67;4,11;24,71;22,92;-23,89;-22,71;-11,55;-2,44;4,11;24,71;22,92;-0,68;-0,41;-3,09;2,55;653045
IF_CR_R1_8501009_FS11_82, SUBCASE 1, Case 1 Time 1.;21;-16,76;-18,41;-8,91;-2,61;-3,73;2,08;3,87;25,13;20,66;5,13;1,95;3,08;26,54;22,37;25,13;20,66;-8,91;-2,61;-3,73;26,54;22,37;2,88;0,23;-2,27;2,49;653102
IF_TO_R4_8502005_FS11_82, SUBCASE 1, Case 1 Time 1.;30;-21,03;-21,28;-11,58;-1,95;-4,12;1,43;4,24;22,44;20,70;6,69;1,95;4,03;22,95;22,13;22,44;-21,28;-11,58;1,95;-4,12;22,95;22,13;1,87;0,30;-3,62;2,46;651910
IF_IP2_R4_8502005_DIS1_-55, SUBCASE 1, Case 1 Time 1.;44;-22,98;-21,84;-11,16;-2,22;-3,03;1,22;3,38;17,22;16,05;4,24;1,76;3,89;23,86;22,10;-22,98;-21,84;-11,16;-2,22;3,89;23,86;22,10;-0,63;-0,39;-2,93;2,46;653045
IF_TO_R4_8502005_FS11_23, SUBCASE 1, Case 1 Time 1.;28;-22,49;-21,88;-11,76;-2,24;-3,74;0,35;1,81;20,35;18,92;5,92;1,53;4,14;22,65;22,09;-22,49;-21,88;-11,76;-2,24;4,14;22,65;22,09;0,75;0,02;-3,44;2,45;653045
IF_TO_R4_8502005_DIS1_82, SUBCASE 1, Case 1 Time 1.;48;-20,41;-20,78;-10,20;-1,66;-4,16;0,56;4,46;22,93;20,94;6,28;1,94;3,84;23,62;21,89;22,93;20,94;-10,20;1,94;-4,16;23,62;21,89;2,05;0,40;-3,42;2,43;653101
IF_TO_R4_8502005_DIS1_23, SUBCASE 1, Case 1 Time 1.;46;-22,13;-21,56;-10,85;-1,97;-3,83;0,41;1,26;21,10;19,40;5,55;1,54;3,99;22,33;21,80;-22,13;-21,56;-10,85;-1,97;3,99;22,33;21,80;0,95;0,12;-3,27;2,42;653056
IF_IP2_R4_8502005_FS11_82, SUBCASE 1, Case 1 Time 1.;27;-20,49;-20,81;-10,94;-1,78;-4,01;1,16;4,39;22,43;20,63;6,38;1,91;3,88;22,98;21,70;22,43;-20,81;-10,94;1,91;-4,01;22,98;21,70;1,96;0,29;-3,52;2,41;651894
IF_IP2_R4_8502005_FS11_23, SUBCASE 1, Case 1 Time 1.;25;-21,92;-21,36;-11,08;-2,07;-3,63;0,36;1,26;20,35;18,85;5,59;1,49;3,98;22,09;21,54;-21,92;-21,36;-11,08;-2,07;3,98;22,09;21,54;0,85;0,01;-3,31;2,39;653045
IF_CR_R1_8501009_FS11_23, SUBCASE 1, Case 1 Time 1.;19;-18,23;-18,31;-9,64;-2,81;-3,36;0,62;3,72;23,40;18,99;5,26;2,27;3,19;24,46;21,00;23,40;18,99;-9,64;-2,81;-3,36;24,46;21,00;1,80;-0,04;-2,21;2,33;653102
IF_CR_R1_8501009_FS11_-55, SUBCASE 1, Case 1 Time 1.;20;-20,25;-19,34;-10,62;-3,06;-2,86;0,11;1,22;22,06;16,80;5,95;2,87;3,34;22,74;20,80;22,06;-19,34;-10,62;-3,06;3,34;22,74;20,80;0,28;-0,45;-1,85;2,31;653045
IF_IP2_R4_8502005_DIS1_82, SUBCASE 1, Case 1 Time 1.;45;-18,68;-19,11;-9,46;-1,48;-3,76;0,35;4,21;21,20;19,38;5,72;1,80;3,50;21,85;20,15;21,20;19,38;-9,46;1,80;-3,76;21,85;20,15;1,98;0,31;-3,22;2,24;653101
IF_IP2_R4_8502005_DIS1_23, SUBCASE 1, Case 1 Time 1.;43;-20,51;-20,00;-10,04;-1,81;-3,45;0,34;1,12;19,47;17,94;4,99;1,40;3,67;20,69;20,14;-20,51;-20,00;-10,04;-1,81;3,67;20,69;20,14;0,89;0,03;-3,14;2,24;653045
IF_IP1_R1_8502005_FS11_82, SUBCASE 1, Case 1 Time 1.;24;-5,20;-7,83;-3,29;-1,37;-1,68;0,42;1,13;12,19;9,61;2,49;1,31;1,06;13,39;10,72;12,19;9,61;-3,29;-1,37;-1,68;13,39;10,72;2,04;0,32;-0,78;1,19;653102
IF_IP1_R1_8502005_FS11_23, SUBCASE 1, Case 1 Time 1.;22;-6,66;-6,92;-3,58;-1,56;-1,31;0,36;0,69;10,74;7,90;2,32;1,20;1,10;11,41;9,66;10,74;7,90;-3,58;-1,56;-1,31;11,41;9,66;0,94;0,05;-0,61;1,07;653104
IF_IP1_R1_8502005_FS11_-55, SUBCASE 1, Case 1 Time 1.;23;-8,66;-7,95;-4,56;-1,80;-0,82;0,85;1,06;9,34;5,70;3,12;1,75;1,77;9,87;9,58;9,34;-7,95;-4,56;-1,80;1,77;9,87;9,58;-0,58;-0,36;-0,35;1,06;653045
IF_LD_JAM2M_IN_-55, SUBCASE 1, Case 1 Time 1.;107;-7,59;-6,79;-3,60;-0,94;-0,64;0,25;0,44;1,25;4,45;3,01;1,15;1,21;9,23;8,24;-7,59;-6,79;-3,60;1,15;1,21;9,23;8,24;-2,44;-0,89;0,51;0,92;651909
IF_IP2_JAM2M_IN_-55, SUBCASE 1, Case 1 Time 1.;95;-6,40;-5,58;-2,98;-0,72;-0,70;0,54;0,83;2,20;4,34;2,32;1,10;1,29;8,04;8,04;-6,40;-5,58;-2,98;1,10;1,29;8,04;8,04;-2,11;-0,72;-0,51;0,89;651901
IF_TO_JAM2M_IN_-55, SUBCASE 1, Case 1 Time 1.;101;-5,05;-4,62;-2,48;-0,74;-0,62;0,62;1,14;1,99;4,38;2,42;1,08;1,23;6,73;7,92;-5,05;-4,62;-2,48;1,08;1,23;6,73;7,92;-2,14;-0,73;-0,24;0,88;651901
IF_TO_JAM2M_OUT_-55, SUBCASE 1, Case 1 Time 1.;104;-4,65;-4,48;-0,74;-0,74;-0,86;0,26;1,38;2,25;4,29;2,35;0,69;0,73;5,60;7,07;-4,65;-4,48;2,35;-0,74;-0,86;5,60;7,07;-0,91;-0,08;0,73;0,79;651901
IF_IP1_JAM2M_OUT_-55, SUBCASE 1, Case 1 Time 1.;92;-4,72;-4,57;-0,40;-0,85;-1,10;0,30;1,46;2,42;4,15;2,33;0,80;0,84;5,48;7,03;-4,72;-4,57;2,33;-0,85;-1,10;5,48;7,03;-0,66;0,02;0,80;0,78;651889
IF_IP2_JAM2M_OUT_-55, SUBCASE 1, Case 1 Time 1.;98;-4,38;-4,29;-0,71;-0,66;-0,78;0,45;1,09;2,33;4,06;1,86;0,64;0,69;5,40;6,86;-4,38;-4,29;1,86;-0,66;-0,78;5,40;6,86;-0,90;-0,11;0,51;0,76;651901
IF_IP2_JAM2M_OUT_82, SUBCASE 1, Case 1 Time 1.;99;-1,29;-3,43;-2,01;-0,98;-1,11;0,40;0,93;3,90;3,59;2,36;0,72;0,44;5,14;6,03;3,90;3,59;2,36;-0,98;-1,11;5,14;6,03;1,75;0,60;0,05;0,67;651901
IF_IP1_JAM2M_OUT_82, SUBCASE 1, Case 1 Time 1.;93;-1,23;-3,25;-2,29;-1,37;-1,58;0,75;0,98;5,18;4,51;2,63;1,13;0,53;6,68;6,00;5,18;4,51;2,63;-1,37;-1,58;6,68;6,00;1,95;0,73;0,42;0,67;651901
IF_TO_JAM2M_OUT_82, SUBCASE 1, Case 1 Time 1.;105;-1,37;-3,18;-2,14;-1,07;-1,24;0,66;0,80;4,55;3,92;2,13;0,82;0,45;5,92;5,80;4,55;3,92;-2,14;-1,07;-1,24;5,92;5,80;1,72;0,63;0,28;0,64;651901
IF_LD_JAM2M_IN_82, SUBCASE 1, Case 1 Time 1.;108;-2,98;-3,79;-1,56;-0,69;-0,82;0,23;1,70;3,32;4,13;1,32;0,61;0,78;4,60;5,57;3,32;4,13;-1,56;-0,69;-0,82;4,60;5,57;0,22;-0,20;0,06;0,62;653061
IF_IP2_JAM2M_IN_82, SUBCASE 1, Case 1 Time 1.;96;-2,78;-3,81;-2,41;-0,45;-0,81;0,35;1,98;3,60;3,27;0,67;0,67;0,81;4,09;5,55;3,60;-3,81;-2,41;0,67;-0,81;4,09;5,55;0,55;-0,02;-0,91;0,62;653081
IF_TO_JAM2M_IN_82, SUBCASE 1, Case 1 Time 1.;102;-1,77;-3,10;-1,93;-0,49;-0,55;0,20;1,34;3,48;3,27;0,40;0,58;0,68;4,03;5,22;3,48;3,27;-1,93;0,58;0,68;4,03;5,22;0,52;-0,04;-0,65;0,58;653081
IF_LD_JAM2M_IN_23, SUBCASE 1, Case 1 Time 1.;106;-4,88;-4,48;-1,93;-0,70;-0,56;0,13;0,42;0,92;1,27;1,08;0,58;0,63;5,07;5,05;-4,88;-4,48;-1,93;-0,70;0,63;5,07;5,05;-0,88;-0,47;0,26;0,56;651909
IF_IP2_JAM2M_IN_23, SUBCASE 1, Case 1 Time 1.;94;-4,32;-4,13;-2,00;-0,49;-0,45;0,16;0,49;0,75;1,16;0,75;0,75;0,76;4,50;4,06;-4,32;-4,13;-2,00;0,75;0,76;4,50;4,06;-0,55;-0,30;-0,72;0,45;653056
IF_IP1_JAM2M_OUT_23, SUBCASE 1, Case 1 Time 1.;91;-0,76;-0,79;-0,94;-0,94;-1,07;0,19;0,49;3,58;3,40;1,59;0,94;0,48;3,89;3,40;3,58;3,40;1,59;0,94;-1,07;3,89;3,40;0,88;0,45;0,43;0,38;653045
IF_TO_JAM2M_OUT_23, SUBCASE 1, Case 1 Time 1.;103;-0,64;-0,71;-0,81;-0,62;-0,74;0,06;0,38;3,12;2,97;1,40;0,65;0,33;3,32;2,97;3,12;2,97;1,40;0,65;-0,74;3,32;2,97;0,60;0,33;0,46;0,33;653081
IF_TO_JAM2M_IN_23, SUBCASE 1, Case 1 Time 1.;100;-2,84;-2,70;-1,27;-0,50;-0,26;0,17;0,45;0,49;0,73;0,61;0,58;0,63;3,02;2,64;-2,84;-2,70;-1,27;0,58;0,63;3,02;2,64;-0,59;-0,31;-0,47;0,29;653045
IF_IP2_JAM2M_OUT_23, SUBCASE 1, Case 1 Time 1.;97;-0,37;-0,31;-0,54;-0,53;-0,62;0,19;0,42;1,65;1,49;1,11;0,55;0,32;1,70;2,33;1,65;1,49;1,11;0,55;-0,62;1,70;2,33;0,62;0,31;0,24;0,26;651909
Ref CID;Coord Material;;;;;;;;;;;;;;;;;;;;;;;;;;
