LC_Name;LC_ID;qxMin;qyMin;qxyMin;qxzMin;qyzMin;qshearMin;qvonmisesMin;qxMax;qyMax;qxyMax;qxzMax;qyzMax;qshearMax;qvonmisesMax;qxAbsMax;qyAbsMax;qxyAbsMax;qxzAbsMax;qyzAbsMax;qshearAbsMax;qvonmisesAbsMax;qxAverage;qyAverage;qxyAverage;sigmaVonMisesMax;CriticalElemID
IF_CR_R1_8501009_JAM2_-55, SUBCASE 1, Case 1 Time 1.;74;-367,70;-238,55;-52,95;-6,05;-8,91;14,38;23,14;13,92;3,07;23,87;13,09;12,38;368,00;362,21;-367,70;-238,55;-52,95;13,09;12,38;368,00;362,21;-91,57;-73,54;0,50;72,44;651379
IF_CR_R1_8501009_JAM2_23, SUBCASE 1, Case 1 Time 1.;73;-367,37;-239,06;-53,22;-6,08;-9,12;13,41;22,48;12,91;3,06;23,95;13,00;12,35;367,67;361,89;-367,37;-239,06;-53,22;13,00;12,35;367,67;361,89;-90,82;-73,22;0,40;72,38;651379
IF_CR_R1_8501009_JAM2_82, SUBCASE 1, Case 1 Time 1.;75;-367,08;-239,41;-53,39;-6,10;-9,26;12,68;22,01;12,16;3,07;23,99;12,93;12,32;367,38;361,61;-367,08;-239,41;-53,39;12,93;12,32;367,38;361,61;-92,08;-74,42;0,34;72,32;651379
IF_CR_R1_8501009_-55, SUBCASE 1, Case 1 Time 1.;2;-365,35;-237,06;-56,00;-6,16;-9,24;5,58;18,04;4,29;2,97;24,30;12,76;12,19;365,64;360,00;-365,35;-237,06;-56,00;12,76;12,19;365,64;360,00;-93,85;-74,91;0,63;72,00;651379
IF_CR_R1_8501009_23, SUBCASE 1, Case 1 Time 1.;1;-365,31;-237,76;-55,86;-6,18;-9,40;5,80;18,16;4,57;2,98;24,32;12,72;12,18;365,60;359,95;-365,31;-237,76;-55,86;12,72;12,18;365,60;359,95;-92,20;-73,93;0,47;71,99;651379
IF_CR_R1_8501009_82, SUBCASE 1, Case 1 Time 1.;3;-365,25;-238,24;-55,73;-6,19;-9,51;5,97;18,25;4,78;2,99;24,32;12,68;12,18;365,54;359,88;-365,25;-238,24;-55,73;12,68;12,18;365,54;359,88;-93,85;-75,49;0,45;71,98;651379
IF_IP2_R4_8502005_DIS3_82, SUBCASE 1, Case 1 Time 1.;63;-265,55;-172,46;-31,25;-3,99;-5,56;2,52;14,28;26,53;2,57;15,94;9,96;9,21;265,78;261,51;-265,55;-172,46;-31,25;9,96;9,21;265,78;261,51;-61,09;-49,56;0,29;52,30;651379
IF_IP2_R4_8502005_DIS3_23, SUBCASE 1, Case 1 Time 1.;61;-265,23;-171,70;-31,32;-3,98;-5,45;2,35;14,01;26,34;2,56;15,91;9,99;9,21;265,45;261,19;-265,23;-171,70;-31,32;9,99;9,21;265,45;261,19;-60,22;-48,62;0,36;52,24;651379
IF_IP2_R4_8502005_DIS3_-55, SUBCASE 1, Case 1 Time 1.;62;-264,77;-170,66;-31,40;-3,98;-5,28;2,14;13,66;26,08;2,55;15,86;10,02;9,20;264,99;260,75;-264,77;-170,66;-31,40;10,02;9,20;264,99;260,75;-60,89;-48,83;0,48;52,15;651379
IF_CR_R1_8501009_DIS3_82, SUBCASE 1, Case 1 Time 1.;57;-246,14;-160,21;-35,30;-3,99;-5,85;4,66;12,89;4,02;2,07;15,26;8,68;8,29;246,34;242,53;-246,14;-160,21;-35,30;8,68;8,29;246,34;242,53;-62,37;-49,54;0,41;48,51;651379
IF_CR_R1_8501009_DIS3_23, SUBCASE 1, Case 1 Time 1.;55;-246,12;-159,66;-35,44;-3,98;-5,75;4,43;12,77;3,75;2,06;15,25;8,71;8,29;246,31;242,51;-246,12;-159,66;-35,44;8,71;8,29;246,31;242,51;-61,31;-48,47;0,48;48,50;651379
IF_CR_R1_8501009_DIS3_-55, SUBCASE 1, Case 1 Time 1.;56;-246,04;-158,88;-35,60;-3,97;-5,60;4,12;12,61;3,39;2,05;15,24;8,75;8,30;246,24;242,45;-246,04;-158,88;-35,60;8,75;8,30;246,24;242,45;-62,38;-48,96;0,59;48,49;651379
IF_CR_R1_8501009_DIS1_-55, SUBCASE 1, Case 1 Time 1.;38;-241,62;-155,99;-34,95;-3,86;-5,38;2,94;11,89;1,84;2,01;14,78;8,58;8,12;241,81;238,10;-241,62;-155,99;-34,95;8,58;8,12;241,81;238,10;-61,49;-47,98;0,63;47,62;651379
IF_CR_R1_8501009_DIS1_23, SUBCASE 1, Case 1 Time 1.;37;-241,60;-156,70;-34,72;-3,86;-5,52;3,24;12,02;2,27;2,02;14,77;8,54;8,12;241,79;238,06;-241,60;-156,70;-34,72;8,54;8,12;241,79;238,06;-60,01;-47,18;0,51;47,61;651379
IF_CR_R1_8501009_DIS1_82, SUBCASE 1, Case 1 Time 1.;39;-241,55;-157,21;-34,54;-3,87;-5,62;3,49;12,13;2,61;2,02;14,78;8,51;8,11;241,74;238,01;-241,55;-157,21;-34,54;8,51;8,11;241,74;238,01;-61,39;-48,48;0,45;47,60;651379
IF_IP2_R4_8502005_JAM2M_OUT_82, SUBCASE 1, Case 1 Time 1.;117;-239,09;-155,85;-35,33;-3,96;-5,81;3,06;12,03;2,03;2,01;15,08;8,38;8,04;239,27;235,62;-239,09;-155,85;-35,33;8,38;8,04;239,27;235,62;-61,31;-48,76;0,43;47,12;651379
IF_IP2_R4_8502005_JAM2_82, SUBCASE 1, Case 1 Time 1.;81;-238,86;-154,75;-21,88;-3,31;-3,93;4,52;8,49;41,86;2,51;13,62;9,53;8,55;239,08;235,07;-238,86;-154,75;-21,88;9,53;8,55;239,08;235,07;-49,23;-40,46;0,16;47,01;651379
IF_IP2_R4_8502005_JAM2M_OUT_23, SUBCASE 1, Case 1 Time 1.;115;-238,35;-154,81;-35,12;-3,92;-5,66;3,30;12,08;2,40;2,00;14,99;8,40;8,03;238,53;234,89;-238,35;-154,81;-35,12;8,40;8,03;238,53;234,89;-60,27;-47,78;0,49;46,98;651379
IF_IP2_R4_8502005_JAM2_23, SUBCASE 1, Case 1 Time 1.;79;-238,29;-153,81;-21,76;-3,30;-3,78;3,94;8,06;42,21;2,50;13,55;9,56;8,54;238,51;234,52;-238,29;-153,81;-21,76;9,56;8,54;238,51;234,52;-48,75;-39,82;0,24;46,90;651379
IF_IP2_R4_8502005_JAM2M_OUT_-55, SUBCASE 1, Case 1 Time 1.;116;-237,36;-153,40;-34,84;-3,88;-5,45;3,67;12,17;2,89;1,99;14,85;8,44;8,01;237,55;233,92;-237,36;-153,40;-34,84;8,44;8,01;237,55;233,92;-60,49;-47,56;0,60;46,78;651379
IF_IP2_R4_8502005_JAM2_-55, SUBCASE 1, Case 1 Time 1.;80;-237,52;-152,53;-21,59;-3,29;-3,57;3,16;7,51;42,68;2,50;13,46;9,60;8,53;237,74;233,76;-237,52;-152,53;-21,59;9,60;8,53;237,74;233,76;-48,52;-39,36;0,34;46,75;651379
IF_IP2_R4_8502005_82, SUBCASE 1, Case 1 Time 1.;9;-237,11;-154,07;-26,75;-3,54;-4,71;4,17;11,61;25,50;2,32;14,18;8,99;8,27;237,31;233,48;-237,11;-154,07;-26,75;8,99;8,27;237,31;233,48;-53,86;-43,68;0,28;46,70;651379
IF_IP2_R4_8502005_23, SUBCASE 1, Case 1 Time 1.;7;-236,47;-153,11;-26,79;-3,54;-4,59;3,99;11,32;25,27;2,31;14,14;9,00;8,26;236,67;232,86;-236,47;-153,11;-26,79;9,00;8,26;236,67;232,86;-53,44;-43,09;0,36;46,57;651379
IF_TO_R4_8502005_DIS3_82, SUBCASE 1, Case 1 Time 1.;66;-236,36;-153,28;-26,56;-3,48;-4,76;5,54;11,82;26,90;2,39;14,28;9,00;8,26;236,56;232,76;-236,36;-153,28;-26,56;9,00;8,26;236,56;232,76;-53,42;-43,38;0,30;46,55;651379
IF_TO_R4_8502005_DIS3_23, SUBCASE 1, Case 1 Time 1.;64;-236,10;-152,57;-26,64;-3,48;-4,65;5,39;11,54;26,73;2,38;14,26;9,02;8,26;236,30;232,51;-236,10;-152,57;-26,64;9,02;8,26;236,30;232,51;-53,54;-43,24;0,38;46,50;651379
IF_TO_R4_8502005_DIS3_-55, SUBCASE 1, Case 1 Time 1.;65;-235,74;-151,59;-26,73;-3,49;-4,49;5,20;11,20;26,52;2,37;14,22;9,06;8,26;235,94;232,17;-235,74;-151,59;-26,73;9,06;8,26;235,94;232,17;-53,27;-42,69;0,49;46,43;651379
IF_IP2_R4_8502005_-55, SUBCASE 1, Case 1 Time 1.;8;-235,60;-151,79;-26,83;-3,54;-4,42;3,75;10,96;24,95;2,29;14,07;9,01;8,23;235,80;232,01;-235,60;-151,79;-26,83;9,01;8,23;235,80;232,01;-53,51;-42,83;0,46;46,40;651379
IF_IP2_R4_8502005_JAM2M_IN_82, SUBCASE 1, Case 1 Time 1.;114;-232,77;-149,16;-18,73;-2,64;-3,00;0,83;2,08;98,96;4,62;11,51;10,98;9,12;233,03;228,79;-232,77;-149,16;-18,73;10,98;9,12;233,03;228,79;-30,47;-27,30;-0,06;45,76;651379
IF_IP2_R4_8502005_JAM2M_IN_23, SUBCASE 1, Case 1 Time 1.;112;-232,35;-148,31;-18,62;-2,69;-2,99;0,88;2,11;99,30;4,97;11,45;11,01;9,12;232,61;228,38;-232,35;-148,31;-18,62;11,01;9,12;232,61;228,38;-30,73;-27,18;0,02;45,68;651379
IF_IP2_R4_8502005_JAM2M_IN_-55, SUBCASE 1, Case 1 Time 1.;113;-231,79;-147,14;-18,48;-2,76;-2,97;0,45;2,13;99,76;5,42;11,38;11,06;9,12;232,05;227,84;-231,79;-147,14;-18,48;11,06;9,12;232,05;227,84;-29,88;-26,29;0,12;45,57;651379
IF_TO_R4_8502005_JAM2M_OUT_82, SUBCASE 1, Case 1 Time 1.;123;-220,06;-143,27;-31,35;-3,58;-5,24;5,69;12,51;5,29;1,90;13,78;7,82;7,45;220,24;216,85;-220,06;-143,27;-31,35;7,82;7,45;220,24;216,85;-55,46;-44,21;0,39;43,37;651379
IF_TO_R4_8502005_JAM2M_OUT_23, SUBCASE 1, Case 1 Time 1.;121;-219,30;-142,22;-31,14;-3,54;-5,08;6,03;12,65;5,65;1,90;13,70;7,84;7,44;219,47;216,10;-219,30;-142,22;-31,14;7,84;7,44;219,47;216,10;-54,40;-43,21;0,45;43,22;651379
IF_TO_R4_8502005_JAM2_82, SUBCASE 1, Case 1 Time 1.;84;-219,01;-141,63;-19,82;-2,97;-3,47;1,25;7,31;41,60;2,40;12,59;8,86;7,90;219,22;215,53;-219,01;-141,63;-19,82;8,86;7,90;219,22;215,53;-44,25;-36,43;0,19;43,11;651379
IF_TO_R4_8502005_JAM2M_OUT_-55, SUBCASE 1, Case 1 Time 1.;122;-218,26;-140,77;-30,85;-3,51;-4,87;6,49;12,86;6,15;1,89;13,60;7,87;7,42;218,44;215,08;-218,26;-140,77;-30,85;7,87;7,42;218,44;215,08;-54,62;-42,99;0,56;43,02;651379
IF_TO_R4_8502005_JAM2_23, SUBCASE 1, Case 1 Time 1.;82;-218,37;-140,65;-19,69;-2,96;-3,32;1,04;6,88;41,90;2,39;12,52;8,88;7,89;218,57;214,91;-218,37;-140,65;-19,69;8,88;7,89;218,57;214,91;-44,07;-36,07;0,26;42,98;651379
IF_TO_R4_8502005_82, SUBCASE 1, Case 1 Time 1.;12;-217,66;-141,21;-23,30;-3,18;-4,18;6,98;10,03;27,37;2,23;13,11;8,38;7,66;217,85;214,32;-217,66;-141,21;-23,30;8,38;7,66;217,85;214,32;-48,36;-39,35;0,28;42,86;651379
IF_TO_R4_8502005_JAM2_-55, SUBCASE 1, Case 1 Time 1.;83;-217,51;-139,30;-19,52;-2,95;-3,11;1,20;6,34;42,29;2,39;12,43;8,92;7,87;217,71;214,06;-217,51;-139,30;-19,52;8,92;7,87;217,71;214,06;-43,54;-35,32;0,36;42,81;651379
IF_TO_R4_8502005_23, SUBCASE 1, Case 1 Time 1.;10;-216,96;-140,21;-23,33;-3,18;-4,06;6,72;9,72;27,14;2,22;13,06;8,39;7,64;217,14;213,64;-216,96;-140,21;-23,33;8,39;7,64;217,14;213,64;-48,34;-39,10;0,36;42,73;651379
IF_TO_R4_8502005_-55, SUBCASE 1, Case 1 Time 1.;11;-216,00;-138,83;-23,35;-3,18;-3,89;6,40;9,34;26,84;2,21;12,98;8,40;7,62;216,19;212,71;-216,00;-138,83;-23,35;8,40;7,62;216,19;212,71;-47,99;-38,48;0,46;42,54;651379
IF_LD_R4_8502001_DIS3_82, SUBCASE 1, Case 1 Time 1.;72;-214,13;-138,54;-21,13;-3,02;-3,92;6,12;9,01;31,36;2,25;12,71;8,38;7,59;214,32;210,81;-214,13;-138,54;-21,13;8,38;7,59;214,32;210,81;-46,17;-37,62;0,25;42,16;651379
IF_LD_R4_8502001_DIS3_23, SUBCASE 1, Case 1 Time 1.;70;-213,73;-137,73;-21,16;-3,02;-3,80;5,87;8,69;31,29;2,24;12,67;8,40;7,58;213,92;210,42;-213,73;-137,73;-21,16;8,40;7,58;213,92;210,42;-45,60;-36,93;0,33;42,08;651379
IF_LD_R4_8502001_DIS3_-55, SUBCASE 1, Case 1 Time 1.;71;-213,18;-136,63;-21,18;-3,02;-3,63;5,53;8,29;31,21;2,24;12,62;8,43;7,58;213,37;209,89;-213,18;-136,63;-21,18;8,43;7,58;213,37;209,89;-45,86;-36,81;0,43;41,98;651379
IF_LD_R4_8502001_82, SUBCASE 1, Case 1 Time 1.;18;-210,17;-135,99;-19,26;-2,91;-3,59;4,94;7,90;37,12;2,30;12,40;8,40;7,54;210,36;206,87;-210,17;-135,99;-19,26;8,40;7,54;210,36;206,87;-43,53;-35,82;0,22;41,37;651379
IF_LD_R4_8502001_23, SUBCASE 1, Case 1 Time 1.;16;-209,05;-134,71;-19,11;-2,90;-3,46;4,87;7,52;36,94;2,29;12,32;8,40;7,51;209,25;205,78;-209,05;-134,71;-19,11;8,40;7,51;209,25;205,78;-43,07;-35,22;0,29;41,16;651379
IF_LD_R4_8502001_-55, SUBCASE 1, Case 1 Time 1.;17;-207,56;-132,98;-18,90;-2,89;-3,27;4,52;7,06;36,70;2,27;12,22;8,39;7,47;207,75;204,31;-207,56;-132,98;-18,90;8,39;7,47;207,75;204,31;-42,88;-34,72;0,40;40,86;651379
IF_LD_R4_8502001_JAM2_82, SUBCASE 1, Case 1 Time 1.;90;-207,27;-134,31;-21,17;-2,98;-3,90;6,32;9,18;29,44;2,19;12,51;8,07;7,34;207,45;204,07;-207,27;-134,31;-21,17;8,07;7,34;207,45;204,07;-45,13;-36,87;0,26;40,81;651379
IF_LD_R4_8502001_JAM2_23, SUBCASE 1, Case 1 Time 1.;88;-205,91;-132,87;-20,92;-2,96;-3,74;5,95;8,71;29,66;2,18;12,40;8,07;7,31;206,09;202,74;-205,91;-132,87;-20,92;8,07;7,31;206,09;202,74;-44,54;-36,17;0,34;40,55;651379
IF_TO_R4_8502005_JAM2M_IN_INSF_82, SUBCASE 1, Case 1 Time 1.;120;-205,10;-130,88;-15,89;-2,64;-2,74;1,80;2,41;96,37;14,09;10,32;10,01;8,19;205,33;201,58;-205,10;-130,88;-15,89;10,01;8,19;205,33;201,58;-24,28;-22,17;0,06;40,32;651379
IF_TO_R4_8502005_JAM2M_IN_INSF_23, SUBCASE 1, Case 1 Time 1.;118;-204,61;-130,00;-15,80;-2,67;-2,72;2,01;2,30;96,08;13,94;10,28;10,03;8,18;204,84;201,11;-204,61;-130,00;-15,80;10,03;8,18;204,84;201,11;-25,06;-22,48;0,14;40,22;651379
IF_LD_R4_8502001_JAM2_-55, SUBCASE 1, Case 1 Time 1.;89;-204,10;-130,92;-20,58;-2,93;-3,51;5,46;8,13;29,94;2,16;12,26;8,08;7,26;204,29;200,97;-204,10;-130,92;-20,58;8,08;7,26;204,29;200,97;-44,06;-35,46;0,44;40,19;651379
IF_TO_R4_8502005_JAM2M_IN_INSF_-55, SUBCASE 1, Case 1 Time 1.;119;-203,94;-128,80;-15,69;-2,72;-2,70;2,37;2,34;95,68;13,73;10,24;10,05;8,16;204,18;200,48;-203,94;-128,80;-15,69;10,05;8,16;204,18;200,48;-24,10;-21,44;0,25;40,10;651379
IF_LD_R2_8502001_82, SUBCASE 1, Case 1 Time 1.;15;-192,51;-123,94;-16,63;-2,40;-2,40;1,62;5,11;48,58;2,30;10,79;8,18;7,12;192,70;189,38;-192,51;-123,94;-16,63;8,18;7,12;192,70;189,38;-35,19;-29,27;0,16;37,88;651379
IF_LD_R2_8502001_23, SUBCASE 1, Case 1 Time 1.;13;-191,33;-122,62;-16,47;-2,39;-2,27;1,36;4,76;48,34;2,29;10,71;8,17;7,08;191,52;188,22;-191,33;-122,62;-16,47;8,17;7,08;191,52;188,22;-35,23;-29,06;0,24;37,64;651379
IF_LD_R2_8502001_-55, SUBCASE 1, Case 1 Time 1.;14;-189,75;-120,83;-16,25;-2,38;-2,18;1,05;4,37;48,02;2,27;10,61;8,16;7,04;189,93;186,68;-189,75;-120,83;-16,25;8,16;7,04;189,93;186,68;-34,56;-28,18;0,35;37,34;651379
IF_LD_R2_8502001_JAM2_82, SUBCASE 1, Case 1 Time 1.;87;-181,37;-117,33;-16,92;-2,53;-3,13;4,48;6,89;28,74;1,98;10,85;7,20;6,48;181,54;178,55;-181,37;-117,33;-16,92;7,20;6,48;181,54;178,55;-38,43;-31,33;0,26;35,71;651379
IF_IP1_R1_8502005_JAM2M_OUT_82, SUBCASE 1, Case 1 Time 1.;111;-180,49;-146,22;-37,64;-3,23;-5,61;13,69;19,32;1,39;1,38;12,07;3,98;4,56;180,63;178,31;-180,49;-146,22;-37,64;3,98;-5,61;180,63;178,31;-52,17;-39,89;0,51;35,66;651420
IF_IP1_R1_8502005_JAM2M_OUT_23, SUBCASE 1, Case 1 Time 1.;109;-179,90;-145,82;-37,59;-3,20;-5,48;13,41;19,06;1,39;1,37;12,05;4,03;4,57;180,04;177,73;-179,90;-145,82;-37,59;4,03;-5,48;180,04;177,73;-50,82;-38,63;0,57;35,55;651420
IF_LD_R2_8502001_JAM2_23, SUBCASE 1, Case 1 Time 1.;85;-180,18;-115,99;-16,71;-2,52;-2,97;4,13;6,45;28,92;1,97;10,75;7,20;6,45;180,34;177,38;-180,18;-115,99;-16,71;7,20;6,45;180,34;177,38;-38,18;-30,91;0,33;35,48;651379
IF_IP1_R1_8502005_JAM2M_OUT_-55, SUBCASE 1, Case 1 Time 1.;110;-179,03;-145,22;-37,50;-3,18;-5,31;13,03;18,73;1,45;1,34;12,02;4,08;4,59;179,17;176,87;-179,03;-145,22;-37,50;4,08;-5,31;179,17;176,87;-51,79;-39,06;0,68;35,37;651420
IF_LD_R2_8502001_JAM2_-55, SUBCASE 1, Case 1 Time 1.;86;-178,58;-114,18;-16,44;-2,49;-2,76;3,68;5,90;29,15;1,96;10,63;7,21;6,42;178,75;175,82;-178,58;-114,18;-16,44;7,21;6,42;178,75;175,82;-37,49;-30,02;0,43;35,16;651379
IF_IP1_R1_8502005_JAM2_-55, SUBCASE 1, Case 1 Time 1.;77;-171,31;-109,79;-20,74;-2,56;-3,13;5,13;7,61;10,38;1,57;10,21;6,44;5,92;171,45;168,74;-171,31;-109,79;-20,74;6,44;5,92;171,45;168,74;-40,65;-31,56;0,49;33,75;651379
IF_IP1_R1_8502005_JAM2_23, SUBCASE 1, Case 1 Time 1.;76;-171,03;-110,38;-20,79;-2,56;-3,31;5,51;8,03;10,00;1,57;10,24;6,36;5,90;171,17;168,47;-171,03;-110,38;-20,79;6,36;5,90;171,17;168,47;-41,93;-32,94;0,39;33,69;651379
IF_IP1_R1_8502005_JAM2_82, SUBCASE 1, Case 1 Time 1.;78;-170,80;-110,79;-20,81;-2,55;-3,43;5,79;8,37;9,73;1,57;10,25;6,31;5,88;170,94;168,24;-170,80;-110,79;-20,81;6,31;5,88;170,94;168,24;-40,81;-32,24;0,31;33,65;651379
IF_IP1_R1_8502005_82, SUBCASE 1, Case 1 Time 1.;6;-167,90;-109,12;-22,61;-2,62;-3,66;4,21;9,45;3,90;1,46;10,27;6,02;5,70;168,03;165,42;-167,90;-109,12;-22,61;6,02;5,70;168,03;165,42;-41,86;-32,95;0,33;33,08;651379
IF_IP1_R1_8502005_23, SUBCASE 1, Case 1 Time 1.;4;-167,84;-108,54;-22,77;-2,61;-3,56;3,91;9,28;3,57;1,45;10,26;6,05;5,70;167,97;165,37;-167,84;-108,54;-22,77;6,05;5,70;167,97;165,37;-43,10;-33,72;0,41;33,07;651379
IF_IP1_R1_8502005_-55, SUBCASE 1, Case 1 Time 1.;5;-167,72;-107,73;-22,96;-2,63;-3,43;3,52;9,06;3,15;1,44;10,24;6,08;5,71;167,86;165,27;-167,72;-107,73;-22,96;6,08;5,71;167,86;165,27;-41,95;-32,44;0,51;33,05;651379
IF_LD_R4_8502001_JAM2M_INSF_82, SUBCASE 1, Case 1 Time 1.;129;-167,16;-105,47;-12,63;-2,97;-2,50;1,56;3,90;104,11;45,13;12,46;9,02;7,07;167,38;164,27;-167,16;-105,47;-12,63;9,02;7,07;167,38;164,27;-12,40;-12,79;0,19;32,85;651379
IF_LD_R4_8502001_JAM2M_INSF_23, SUBCASE 1, Case 1 Time 1.;127;-166,56;-104,52;-12,41;-3,00;-2,48;1,79;3,93;103,72;44,91;12,35;9,03;7,05;166,77;163,69;-166,56;-104,52;-12,41;9,03;7,05;166,77;163,69;-12,25;-12,41;0,26;32,74;651379
IF_LD_R4_8502001_JAM2M_INSF_-55, SUBCASE 1, Case 1 Time 1.;128;-165,66;-103,27;-11,86;-2,97;-2,43;1,93;3,90;101,07;41,07;11,24;8,97;7,00;165,88;162,83;-165,66;-103,27;-11,86;8,97;7,00;165,88;162,83;-12,86;-12,55;0,38;32,57;651379
IF_LD_R2_8502001_JAM2M_INSF_82, SUBCASE 1, Case 1 Time 1.;126;-153,11;-96,15;-11,80;-2,90;-2,35;2,13;3,86;98,43;48,20;13,41;8,43;6,53;153,31;150,46;-153,11;-96,15;13,41;8,43;6,53;153,31;150,46;-10,08;-10,45;0,21;30,09;651379
IF_LD_R2_8502001_JAM2M_INSF_23, SUBCASE 1, Case 1 Time 1.;124;-152,26;-95,02;-11,60;-2,94;-2,33;2,60;4,11;98,32;48,54;13,46;8,44;6,51;152,47;149,64;-152,26;-95,02;13,46;8,44;6,51;152,47;149,64;-10,91;-10,81;0,29;29,93;651379
IF_LD_R2_8502001_JAM2M_INSF_-55, SUBCASE 1, Case 1 Time 1.;125;-151,15;-93,53;-11,27;-2,98;-2,30;3,11;4,46;97,52;48,02;13,25;8,43;6,47;151,35;148,56;-151,15;-93,53;13,25;8,43;6,47;151,35;148,56;-9,76;-9,60;0,39;29,71;651379
IF_LD_R2_8502001_FS11_-55, SUBCASE 1, Case 1 Time 1.;32;-55,05;-29,58;-11,12;-3,59;-2,56;4,11;7,68;149,08;119,36;32,56;5,61;4,82;149,20;146,81;149,08;119,36;32,56;5,61;4,82;149,20;146,81;18,32;12,82;0,50;29,36;651420
IF_LD_R2_8502001_FS11_23, SUBCASE 1, Case 1 Time 1.;31;-56,10;-31,09;-11,34;-3,52;-2,44;5,62;8,77;148,05;118,59;32,42;5,59;4,64;148,17;145,78;148,05;118,59;32,42;5,59;4,64;148,17;145,78;17,38;11,79;0,39;29,16;651420
IF_LD_R2_8502001_FS11_82, SUBCASE 1, Case 1 Time 1.;33;-56,91;-32,22;-11,51;-3,47;-2,34;6,78;9,75;147,24;117,98;32,31;5,57;4,51;147,35;144,98;147,24;117,98;32,31;5,57;4,51;147,35;144,98;17,67;11,75;0,32;29,00;651420
IF_LD_R2_8502001_DIS3_82, SUBCASE 1, Case 1 Time 1.;69;-139,52;-89,69;-11,78;-1,76;-1,79;1,16;3,82;29,90;1,67;8,02;5,85;5,12;139,65;137,29;-139,52;-89,69;-11,78;5,85;5,12;139,65;137,29;-26,87;-21,82;0,22;27,46;651379
IF_LD_R2_8502001_DIS3_23, SUBCASE 1, Case 1 Time 1.;67;-139,17;-88,91;-11,71;-1,76;-1,68;0,94;3,50;29,71;1,67;7,99;5,87;5,11;139,30;136,95;-139,17;-88,91;-11,71;5,87;5,11;139,30;136,95;-27,41;-22,03;0,30;27,39;651379
IF_LD_R2_8502001_DIS3_-55, SUBCASE 1, Case 1 Time 1.;68;-138,68;-87,83;-11,62;-1,77;-1,67;0,69;3,15;29,47;1,66;7,95;5,90;5,10;138,81;136,48;-138,68;-87,83;-11,62;5,90;5,10;138,81;136,48;-26,69;-21,12;0,40;27,30;651379
IF_LD_R2_8502001_DIS1_INSF_-55, SUBCASE 1, Case 1 Time 1.;50;-117,88;-74,43;-9,69;-1,48;-1,43;0,23;2,69;26,55;1,47;6,79;5,09;4,37;118,00;116,02;-117,88;-74,43;-9,69;5,09;4,37;118,00;116,02;-22,19;-17,47;0,39;23,20;651379
IF_LD_R2_8502001_DIS1_INSF_23, SUBCASE 1, Case 1 Time 1.;49;-116,69;-74,42;-9,63;-1,45;-1,30;0,28;2,97;26,71;1,46;6,74;5,01;4,32;116,80;114,83;-116,69;-74,42;-9,63;5,01;4,32;116,80;114,83;-21,66;-17,39;0,29;22,97;651379
IF_LD_R2_8502001_DIS1_INSF_82, SUBCASE 1, Case 1 Time 1.;51;-116,31;-74,73;-9,63;-1,43;-1,35;0,44;3,25;26,90;1,47;6,74;4,96;4,30;116,42;114,45;-116,31;-74,73;-9,63;4,96;4,30;116,42;114,45;-21,83;-17,76;0,22;22,89;651379
IF_CR_R1_8501009_FS11_-55, SUBCASE 1, Case 1 Time 1.;20;-111,82;-90,70;-23,88;-1,70;-3,30;9,78;13,40;1,03;0,59;7,15;1,46;2,22;111,91;110,35;-111,82;-90,70;-23,88;-1,70;-3,30;111,91;110,35;-26,97;-20,30;0,32;22,07;651420
IF_IP1_R1_8502005_DIS3_82, SUBCASE 1, Case 1 Time 1.;60;-111,59;-72,48;-13,74;-1,67;-2,22;3,62;5,32;4,74;1,02;6,78;4,10;3,84;111,68;109,93;-111,59;-72,48;-13,74;4,10;3,84;111,68;109,93;-27,04;-21,22;0,23;21,99;651379
IF_IP1_R1_8502005_DIS3_23, SUBCASE 1, Case 1 Time 1.;58;-111,50;-71,88;-13,92;-1,68;-2,13;3,44;5,10;4,35;1,01;6,76;4,12;3,84;111,59;109,84;-111,50;-71,88;-13,92;4,12;3,84;111,59;109,84;-27,89;-21,67;0,31;21,97;651379
IF_IP1_R1_8502005_DIS3_-55, SUBCASE 1, Case 1 Time 1.;59;-111,33;-71,03;-14,15;-1,69;-2,00;3,22;4,89;3,85;1,00;6,74;4,15;3,83;111,42;109,69;-111,33;-71,03;-14,15;4,15;3,83;111,42;109,69;-27,13;-20,72;0,41;21,94;651379
IF_CR_R1_8501009_FS11_23, SUBCASE 1, Case 1 Time 1.;19;-110,42;-89,51;-23,49;-1,71;-3,40;9,89;13,91;0,88;0,61;7,07;1,48;2,31;110,51;108,99;-110,42;-89,51;-23,49;-1,71;-3,40;110,51;108,99;-27,27;-20,93;0,22;21,80;651420
IF_CR_R1_8501009_FS11_82, SUBCASE 1, Case 1 Time 1.;21;-109,36;-88,60;-23,20;-1,72;-3,47;9,98;14,14;0,83;0,62;7,01;1,49;2,36;109,45;107,95;-109,36;-88,60;-23,20;-1,72;-3,47;109,45;107,95;-26,82;-20,77;0,15;21,59;651420
IF_IP1_R1_8502005_DIS1_23, SUBCASE 1, Case 1 Time 1.;40;-109,07;-70,29;-13,43;-1,62;-2,01;3,10;4,68;4,20;1,00;6,58;4,04;3,75;109,16;107,46;-109,07;-70,29;-13,43;4,04;3,75;109,16;107,46;-27,24;-21,06;0,32;21,49;651379
IF_IP1_R1_8502005_DIS1_82, SUBCASE 1, Case 1 Time 1.;42;-109,07;-70,83;-13,22;-1,61;-2,10;3,26;4,88;4,60;1,01;6,59;4,02;3,75;109,16;107,44;-109,07;-70,83;-13,22;4,02;3,75;109,16;107,44;-26,35;-20,59;0,25;21,49;651379
IF_IP1_R1_8502005_DIS1_-55, SUBCASE 1, Case 1 Time 1.;41;-109,04;-69,53;-13,70;-1,64;-1,89;2,90;4,49;3,68;0,99;6,57;4,08;3,75;109,13;107,44;-109,04;-69,53;-13,70;4,08;3,75;109,13;107,44;-26,53;-20,16;0,42;21,49;651379
IF_LD_R4_8502001_DIS1_INSF_82, SUBCASE 1, Case 1 Time 1.;54;-80,09;-51,79;-6,82;-1,05;-1,09;0,70;2,38;16,93;1,03;4,95;3,36;2,95;80,17;78,85;-80,09;-51,79;-6,82;3,36;2,95;80,17;78,85;-15,75;-12,94;0,18;15,77;651379
IF_LD_R4_8502001_DIS1_INSF_23, SUBCASE 1, Case 1 Time 1.;52;-79,89;-51,11;-6,77;-1,06;-1,00;0,46;2,04;16,57;1,02;4,93;3,38;2,95;79,96;78,66;-79,89;-51,11;-6,77;3,38;2,95;79,96;78,66;-15,89;-12,81;0,25;15,73;651379
IF_LD_R4_8502001_DIS1_INSF_-55, SUBCASE 1, Case 1 Time 1.;53;-79,62;-50,18;-6,71;-1,07;-1,07;0,45;1,75;16,11;1,01;4,90;3,41;2,94;79,70;78,41;-79,62;-50,18;-6,71;3,41;2,94;79,70;78,41;-15,76;-12,37;0,35;15,68;651379
IF_IP1_R1_8502005_FS11_-55, SUBCASE 1, Case 1 Time 1.;23;-63,83;-51,74;-13,75;-0,87;-1,84;5,95;7,27;0,74;0,23;3,97;0,96;1,19;63,89;62,97;-63,83;-51,74;-13,75;0,96;-1,84;63,89;62,97;-14,12;-10,40;0,15;12,59;651420
IF_IP1_R1_8502005_FS11_23, SUBCASE 1, Case 1 Time 1.;22;-62,82;-50,85;-13,44;-0,89;-1,96;6,08;7,81;0,52;0,25;3,91;0,98;1,28;62,87;61,98;-62,82;-50,85;-13,44;0,98;-1,96;62,87;61,98;-14,41;-10,96;0,05;12,40;651420
IF_IP1_R1_8502005_FS11_82, SUBCASE 1, Case 1 Time 1.;24;-62,07;-50,18;-13,20;-0,90;-2,04;6,20;8,23;0,45;0,27;3,86;1,00;1,34;62,11;61,24;-62,07;-50,18;-13,20;1,00;-2,04;62,11;61,24;-14,11;-10,96;-0,02;12,25;651420
IF_LD_R4_8502001_FS11_82, SUBCASE 1, Case 1 Time 1.;36;-56,09;-34,64;-5,76;-1,60;-1,05;1,35;2,23;50,65;38,50;10,73;3,66;2,64;56,18;55,16;-56,09;38,50;10,73;3,66;2,64;56,18;55,16;0,77;-0,65;0,15;11,03;651379
IF_LD_R4_8502001_FS11_23, SUBCASE 1, Case 1 Time 1.;34;-55,27;-33,53;-5,60;-1,66;-1,03;1,20;2,69;50,80;39,14;10,86;3,68;2,63;55,36;54,37;-55,27;39,14;10,86;3,68;2,63;55,36;54,37;1,44;0,08;0,22;10,87;651379
IF_LD_R4_8502001_FS11_-55, SUBCASE 1, Case 1 Time 1.;35;-54,21;-32,03;-5,39;-1,72;-1,01;0,51;2,23;51,00;39,95;11,00;3,70;2,61;54,30;53,35;-54,21;39,95;11,00;3,70;2,61;54,30;53,35;1,45;0,44;0,32;10,67;651379
IF_TO_R4_8502005_DIS1_82, SUBCASE 1, Case 1 Time 1.;48;-53,23;-34,77;-4,59;-0,74;-0,75;0,64;1,73;10,69;0,70;3,40;2,21;1,96;53,28;52,42;-53,23;-34,77;-4,59;2,21;1,96;53,28;52,42;-10,72;-8,92;0,12;10,48;651379
IF_TO_R4_8502005_DIS1_23, SUBCASE 1, Case 1 Time 1.;46;-53,06;-34,12;-4,56;-0,75;-0,67;0,49;1,38;10,24;0,69;3,39;2,23;1,96;53,11;52,27;-53,06;-34,12;-4,56;2,23;1,96;53,11;52,27;-10,74;-8,70;0,19;10,45;651379
IF_TO_R4_8502005_DIS1_-55, SUBCASE 1, Case 1 Time 1.;47;-52,85;-33,23;-4,58;-0,76;-0,80;0,33;1,15;9,66;0,67;3,37;2,25;1,95;52,90;52,08;-52,85;-33,23;-4,58;2,25;1,95;52,90;52,08;-10,82;-8,42;0,29;10,42;651379
IF_TO_R4_8502005_FS11_82, SUBCASE 1, Case 1 Time 1.;30;-51,81;-33,32;-3,74;-0,66;-0,70;0,60;0,70;22,83;1,94;3,03;2,57;2,09;51,86;50,96;-51,81;-33,32;-3,74;2,57;2,09;51,86;50,96;-6,64;-5,99;0,11;10,19;651379
IF_IP2_R4_8502005_FS11_82, SUBCASE 1, Case 1 Time 1.;27;-51,68;-33,60;-4,03;-0,64;-0,64;0,89;1,18;17,23;0,87;3,11;2,38;2,00;51,74;50,86;-51,68;-33,60;-4,03;2,38;2,00;51,74;50,86;-8,28;-7,15;0,11;10,17;651379
IF_TO_R4_8502005_FS11_23, SUBCASE 1, Case 1 Time 1.;28;-51,00;-32,24;-3,64;-0,70;-0,68;0,84;0,79;22,49;1,97;2,98;2,57;2,07;51,06;50,18;-51,00;-32,24;-3,64;2,57;2,07;51,06;50,18;-6,54;-5,67;0,18;10,04;651379
IF_IP2_R4_8502005_FS11_23, SUBCASE 1, Case 1 Time 1.;25;-50,90;-32,55;-3,95;-0,65;-0,62;0,99;1,17;16,68;1,03;3,06;2,37;1,98;50,95;50,10;-50,90;-32,55;-3,95;2,37;1,98;50,95;50,10;-8,34;-6,95;0,18;10,02;651379
IF_TO_R4_8502005_FS11_-55, SUBCASE 1, Case 1 Time 1.;29;-49,95;-30,79;-3,51;-0,74;-0,68;0,57;0,85;22,05;2,22;2,91;2,57;2,04;50,01;49,15;-49,95;-30,79;-3,51;2,57;2,04;50,01;49,15;-6,30;-5,15;0,28;9,83;651379
IF_IP2_R4_8502005_FS11_-55, SUBCASE 1, Case 1 Time 1.;26;-49,89;-31,14;-3,84;-0,65;-0,74;0,63;0,79;15,96;1,21;3,00;2,36;1,94;49,94;49,11;-49,89;-31,14;-3,84;2,36;1,94;49,94;49,11;-8,10;-6,44;0,28;9,82;651379
IF_IP2_R4_8502005_DIS1_-55, SUBCASE 1, Case 1 Time 1.;44;-49,04;-30,90;-4,29;-0,73;-0,77;0,15;1,01;8,45;0,61;3,10;2,08;1,81;49,08;48,32;-49,04;-30,90;-4,29;2,08;1,81;49,08;48,32;-10,14;-7,85;0,29;9,66;651379
IF_IP2_R4_8502005_DIS1_23, SUBCASE 1, Case 1 Time 1.;43;-48,88;-31,56;-4,17;-0,71;-0,64;0,29;1,25;9,00;0,62;3,09;2,05;1,80;48,93;48,15;-48,88;-31,56;-4,17;2,05;1,80;48,93;48,15;-10,37;-8,35;0,19;9,63;651379
IF_IP2_R4_8502005_DIS1_82, SUBCASE 1, Case 1 Time 1.;45;-48,76;-32,03;-4,18;-0,69;-0,64;0,43;1,60;9,43;0,63;3,09;2,02;1,79;48,81;48,03;-48,76;-32,03;-4,18;2,02;1,79;48,81;48,03;-9,88;-8,22;0,11;9,61;651379
IF_IP2_JAM2M_IN_82, SUBCASE 1, Case 1 Time 1.;96;-6,37;-4,07;-0,40;-0,16;-0,10;0,10;0,40;3,51;2,83;0,89;0,37;0,26;6,37;6,26;-6,37;-4,07;0,89;0,37;0,26;6,37;6,26;-0,44;-0,24;0,02;1,25;651379
IF_LD_JAM2M_IN_-55, SUBCASE 1, Case 1 Time 1.;107;-4,96;-2,50;-0,79;-0,41;-0,27;0,14;0,47;6,10;4,86;1,17;0,16;0,18;6,11;5,98;6,10;4,86;1,17;-0,41;-0,27;6,11;5,98;0,26;0,97;0,13;1,20;651379
IF_IP2_JAM2M_IN_23, SUBCASE 1, Case 1 Time 1.;94;-5,85;-3,20;-0,33;-0,18;-0,08;0,06;0,26;2,83;2,15;0,66;0,36;0,24;5,86;5,77;-5,85;-3,20;0,66;0,36;0,24;5,86;5,77;-0,42;-0,01;0,08;1,15;651379
IF_LD_JAM2M_IN_23, SUBCASE 1, Case 1 Time 1.;106;-3,73;-1,20;-0,39;-0,26;-0,23;0,05;0,16;5,25;3,60;0,58;0,16;0,16;5,25;5,15;5,25;3,60;0,58;-0,26;-0,23;5,25;5,15;0,36;0,69;0,03;1,03;651379
IF_IP2_JAM2M_IN_-55, SUBCASE 1, Case 1 Time 1.;95;-5,18;-2,03;-0,35;-0,35;-0,16;0,13;0,21;1,94;1,36;0,84;0,36;0,25;5,19;5,12;-5,18;-2,03;0,84;0,36;0,25;5,19;5,12;-0,49;0,30;0,18;1,02;651379
IF_TO_JAM2M_OUT_-55, SUBCASE 1, Case 1 Time 1.;104;-0,18;-0,07;-0,26;-0,24;-0,20;0,19;0,45;5,14;3,71;0,46;0,03;0,17;5,15;5,06;5,14;3,71;0,46;-0,24;-0,20;5,15;5,06;1,38;1,00;0,02;1,01;651379
IF_LD_JAM2M_IN_82, SUBCASE 1, Case 1 Time 1.;108;-2,80;-0,34;-0,31;-0,24;-0,21;0,09;0,15;4,60;2,66;0,38;0,19;0,25;4,60;4,52;4,60;2,66;0,38;-0,24;0,25;4,60;4,52;0,40;0,49;-0,03;0,90;651379
IF_IP1_JAM2M_OUT_82, SUBCASE 1, Case 1 Time 1.;93;-0,69;-1,27;-1,11;-0,16;-0,15;0,14;0,45;4,55;3,53;0,93;0,34;0,12;4,55;4,49;4,55;3,53;-1,11;0,34;-0,15;4,55;4,49;1,31;0,21;-0,17;0,90;651420
IF_IP1_JAM2M_OUT_-55, SUBCASE 1, Case 1 Time 1.;92;-0,11;-0,07;-0,19;-0,22;-0,22;0,13;0,24;4,06;2,87;0,39;0,04;0,14;4,06;4,00;4,06;2,87;0,39;-0,22;-0,22;4,06;4,00;1,21;0,71;0,00;0,80;651379
IF_TO_JAM2M_OUT_23, SUBCASE 1, Case 1 Time 1.;103;-0,28;-0,05;-0,49;-0,16;-0,12;0,06;0,10;4,05;2,66;0,66;0,07;0,05;4,05;3,99;4,05;2,66;0,66;-0,16;-0,12;4,05;3,99;1,22;0,55;-0,07;0,80;651379
IF_IP1_JAM2M_OUT_23, SUBCASE 1, Case 1 Time 1.;91;-0,39;-0,23;-0,67;-0,14;-0,10;0,04;0,19;3,79;2,85;0,70;0,11;0,07;3,80;3,74;3,79;2,85;0,70;-0,14;-0,10;3,80;3,74;0,20;-0,44;-0,09;0,75;651420
IF_TO_JAM2M_OUT_82, SUBCASE 1, Case 1 Time 1.;105;-0,57;-0,95;-0,92;-0,15;-0,12;0,11;0,39;3,77;2,97;0,80;0,31;0,09;3,77;3,73;3,77;2,97;-0,92;0,31;-0,12;3,77;3,73;1,15;0,25;-0,14;0,75;651420
IF_TO_JAM2M_IN_82, SUBCASE 1, Case 1 Time 1.;102;-3,40;-2,26;-0,26;-0,10;-0,06;0,07;0,10;2,66;2,32;0,72;0,21;0,17;3,40;3,34;-3,40;2,32;0,72;0,21;0,17;3,40;3,34;-0,13;-0,01;0,00;0,67;651379
IF_TO_JAM2M_IN_23, SUBCASE 1, Case 1 Time 1.;100;-2,86;-1,37;-0,28;-0,12;-0,08;0,08;0,13;1,83;1,60;0,48;0,20;0,12;2,86;2,82;-2,86;1,60;0,48;0,20;0,12;2,86;2,82;-0,16;0,20;0,07;0,56;651379
IF_IP2_JAM2M_OUT_82, SUBCASE 1, Case 1 Time 1.;99;-1,23;-2,20;-0,79;-0,16;-0,18;0,05;0,20;0,81;0,05;0,27;0,29;0,15;2,23;2,44;-1,23;-2,20;-0,79;0,29;-0,18;2,23;2,44;-0,18;-0,73;-0,13;0,49;651438
IF_TO_JAM2M_IN_-55, SUBCASE 1, Case 1 Time 1.;101;-2,15;-0,18;-0,30;-0,36;-0,17;0,05;0,25;0,71;1,73;0,89;0,19;0,22;2,15;2,29;-2,15;1,73;0,89;-0,36;0,22;2,15;2,29;-0,20;0,53;0,17;0,46;651441
IF_IP2_JAM2M_OUT_-55, SUBCASE 1, Case 1 Time 1.;98;-0,95;-0,99;-0,37;-0,26;-0,22;0,01;0,09;1,21;1,16;0,22;0,03;0,06;1,21;1,18;1,21;1,16;-0,37;-0,26;-0,22;1,21;1,18;0,14;0,09;0,04;0,24;651379
IF_IP2_JAM2M_OUT_23, SUBCASE 1, Case 1 Time 1.;97;-0,68;-0,89;-0,36;-0,11;-0,11;0,02;0,14;0,34;0,02;0,23;0,09;0,07;0,89;1,03;-0,68;-0,89;-0,36;-0,11;-0,11;0,89;1,03;-0,06;-0,38;-0,06;0,21;651438
Ref CID;Coord Material;;;;;;;;;;;;;;;;;;;;;;;;;;
