LC_Name;LC_ID;qxMin;qyMin;qxyMin;qxzMin;qyzMin;qshearMin;qvonmisesMin;qxMax;qyMax;qxyMax;qxzMax;qyzMax;qshearMax;qvonmisesMax;qxAbsMax;qyAbsMax;qxyAbsMax;qxzAbsMax;qyzAbsMax;qshearAbsMax;qvonmisesAbsMax;qxAverage;qyAverage;qxyAverage;sigmaVonMisesMax;CriticalElemID
IF_CR_R1_8501009_JAM2_-55, SUBCASE 1, Case 1 Time 1.;74;-21,39;-31,03;-18,19;-26,11;-33,09;5,55;25,59;396,52;195,80;58,45;43,61;29,01;397,03;391,17;396,52;195,80;58,45;43,61;-33,09;397,03;391,17;158,54;10,95;8,56;65,20;651351
IF_CR_R1_8501009_JAM2_23, SUBCASE 1, Case 1 Time 1.;73;-21,19;-30,84;-18,17;-25,97;-32,91;5,52;25,43;394,86;194,66;58,20;43,45;28,86;395,37;389,49;394,86;194,66;58,20;43,45;-32,91;395,37;389,49;156,53;10,81;8,39;64,92;651351
IF_CR_R1_8501009_JAM2_82, SUBCASE 1, Case 1 Time 1.;75;-21,03;-30,70;-18,16;-25,86;-32,78;5,50;25,31;393,58;193,80;58,01;43,33;28,74;394,09;388,19;393,58;193,80;58,01;43,33;-32,78;394,09;388,19;156,95;10,83;8,34;64,70;651351
IF_CR_R1_8501009_-55, SUBCASE 1, Case 1 Time 1.;2;-19,35;-29,68;-17,99;-25,26;-31,96;4,78;24,14;389,88;188,87;56,42;42,37;28,00;390,39;384,34;389,88;188,87;56,42;42,37;-31,96;390,39;384,34;153,30;10,59;7,87;64,06;651351
IF_CR_R1_8501009_23, SUBCASE 1, Case 1 Time 1.;1;-19,42;-29,67;-18,00;-25,24;-31,93;4,85;24,17;389,11;188,66;56,44;42,37;27,98;389,62;383,57;389,11;188,66;56,44;42,37;-31,93;389,62;383,57;150,05;10,36;7,69;63,93;651351
IF_CR_R1_8501009_82, SUBCASE 1, Case 1 Time 1.;3;-19,47;-29,66;-18,01;-25,22;-31,91;4,90;24,19;388,49;188,49;56,44;42,37;27,96;389,00;382,96;388,49;188,49;56,44;42,37;-31,91;389,00;382,96;152,93;10,55;7,81;63,83;651351
IF_IP2_R4_8502005_JAM2M_IN_-55, SUBCASE 1, Case 1 Time 1.;113;-35,11;-31,86;-12,16;-24,03;-30,65;11,13;25,64;289,54;181,62;55,88;37,80;26,98;289,87;292,66;289,54;181,62;55,88;37,80;-30,65;289,87;292,66;140,68;9,70;11,14;48,78;651517
IF_IP2_R4_8502005_JAM2M_IN_23, SUBCASE 1, Case 1 Time 1.;112;-35,03;-31,80;-12,19;-23,98;-30,60;11,12;25,54;289,08;181,22;55,82;37,78;26,93;289,41;292,33;289,08;181,22;55,82;37,78;-30,60;289,41;292,33;138,46;9,54;10,87;48,72;651517
IF_IP2_R4_8502005_JAM2M_IN_82, SUBCASE 1, Case 1 Time 1.;114;-34,98;-31,75;-12,21;-23,95;-30,56;11,12;25,47;288,72;180,92;55,77;37,77;26,89;289,05;292,08;288,72;180,92;55,77;37,77;-30,56;289,05;292,08;140,16;9,65;11,03;48,68;651517
IF_IP2_R4_8502005_DIS3_-55, SUBCASE 1, Case 1 Time 1.;62;-20,56;-24,99;-13,21;-20,69;-26,07;4,46;20,87;293,56;153,02;46,48;33,67;22,69;293,93;289,99;293,56;153,02;46,48;33,67;-26,07;293,93;289,99;122,11;8,44;7,20;48,33;651351
IF_IP2_R4_8502005_DIS3_23, SUBCASE 1, Case 1 Time 1.;61;-20,62;-25,01;-13,23;-20,69;-26,08;4,45;20,87;293,30;153,00;46,53;33,70;22,69;293,67;289,73;293,30;153,00;46,53;33,70;-26,08;293,67;289,73;120,59;8,33;7,09;48,29;651351
IF_IP2_R4_8502005_DIS3_82, SUBCASE 1, Case 1 Time 1.;63;-20,66;-25,02;-13,25;-20,69;-26,07;4,44;20,86;293,07;152,97;46,56;33,72;22,70;293,44;289,50;293,07;152,97;46,56;33,72;-26,07;293,44;289,50;122,03;8,42;7,17;48,25;651351
IF_TO_R4_8502005_JAM2M_IN_INSF_82, SUBCASE 1, Case 1 Time 1.;120;-33,74;-29,53;-11,10;-22,15;-28,22;11,37;22,59;266,46;166,80;52,25;35,00;24,80;266,51;269,75;266,46;166,80;52,25;35,00;-28,22;266,51;269,75;127,94;8,81;10,14;44,96;651517
IF_TO_R4_8502005_JAM2M_IN_INSF_23, SUBCASE 1, Case 1 Time 1.;118;-33,66;-29,49;-11,07;-22,14;-28,20;11,46;22,61;266,13;166,69;52,18;34,95;24,78;266,18;269,43;266,13;166,69;52,18;34,95;-28,20;266,18;269,43;127,32;8,78;10,05;44,90;651517
IF_TO_R4_8502005_JAM2M_IN_INSF_-55, SUBCASE 1, Case 1 Time 1.;119;-33,56;-29,44;-11,04;-22,12;-28,17;11,57;22,63;265,65;166,52;52,07;34,87;24,74;265,70;268,96;265,65;166,52;52,07;34,87;-28,17;265,70;268,96;127,79;8,82;10,15;44,83;651517
IF_IP2_R4_8502005_JAM2_-55, SUBCASE 1, Case 1 Time 1.;80;-22,78;-24,77;-11,67;-19,96;-25,17;4,85;20,87;270,76;147,80;44,88;31,74;21,96;271,10;268,04;270,76;147,80;44,88;31,74;-25,17;271,10;268,04;117,28;8,09;7,75;44,67;651351
IF_IP2_R4_8502005_JAM2_23, SUBCASE 1, Case 1 Time 1.;79;-22,70;-24,73;-11,71;-19,93;-25,13;4,83;20,80;270,53;147,53;44,85;31,75;21,93;270,86;267,78;270,53;147,53;44,85;31,75;-25,13;270,86;267,78;116,21;8,01;7,62;44,63;651351
IF_IP2_R4_8502005_JAM2_82, SUBCASE 1, Case 1 Time 1.;81;-22,64;-24,70;-11,73;-19,90;-25,10;4,81;20,76;270,33;147,32;44,83;31,75;21,90;270,66;267,56;270,33;147,32;44,83;31,75;-25,10;270,66;267,56;116,90;8,05;7,65;44,59;651351
IF_TO_R4_8502005_DIS3_-55, SUBCASE 1, Case 1 Time 1.;65;-19,63;-22,90;-11,91;-18,91;-23,78;4,14;19,15;262,66;139,23;42,82;30,74;20,65;262,99;259,51;262,66;139,23;42,82;30,74;-23,78;262,99;259,51;110,47;7,64;6,56;43,25;651351
IF_TO_R4_8502005_DIS3_23, SUBCASE 1, Case 1 Time 1.;64;-19,68;-22,91;-11,92;-18,89;-23,76;4,14;19,14;262,27;139,12;42,83;30,75;20,64;262,60;259,12;262,27;139,12;42,83;30,75;-23,76;262,60;259,12;110,58;7,64;6,55;43,19;651351
IF_CR_R1_8501009_DIS3_-55, SUBCASE 1, Case 1 Time 1.;56;-14,31;-20,23;-11,84;-17,38;-21,71;3,72;16,76;262,51;126,74;37,79;27,96;18,85;262,85;258,83;262,51;126,74;37,79;27,96;-21,71;262,85;258,83;103,14;7,11;5,57;43,14;651351
IF_TO_R4_8502005_DIS3_82, SUBCASE 1, Case 1 Time 1.;66;-19,71;-22,91;-11,93;-18,88;-23,75;4,14;19,12;261,97;139,03;42,84;30,76;20,64;262,30;258,81;261,97;139,03;42,84;30,76;-23,75;262,30;258,81;110,25;7,61;6,53;43,14;651351
IF_IP2_R4_8502005_82, SUBCASE 1, Case 1 Time 1.;9;-19,14;-22,57;-11,65;-18,63;-23,42;3,99;18,88;261,64;137,05;41,80;30,07;20,37;261,97;258,48;261,64;137,05;41,80;30,07;-23,42;261,97;258,48;109,26;7,53;6,53;43,08;651351
IF_IP2_R4_8502005_23, SUBCASE 1, Case 1 Time 1.;7;-19,07;-22,52;-11,61;-18,61;-23,38;3,99;18,86;261,51;136,89;41,71;30,00;20,34;261,84;258,36;261,51;136,89;41,71;30,00;-23,38;261,84;258,36;108,39;7,47;6,48;43,06;651351
IF_CR_R1_8501009_DIS3_23, SUBCASE 1, Case 1 Time 1.;55;-14,38;-20,24;-11,79;-17,36;-21,70;3,80;16,82;261,90;126,65;37,83;27,99;18,84;262,24;258,24;261,90;126,65;37,83;27,99;-21,70;262,24;258,24;101,77;7,01;5,49;43,04;651351
IF_IP2_R4_8502005_-55, SUBCASE 1, Case 1 Time 1.;8;-18,98;-22,46;-11,57;-18,58;-23,34;3,98;18,84;261,30;136,65;41,59;29,91;20,29;261,63;258,15;261,30;136,65;41,59;29,91;-23,34;261,63;258,15;109,01;7,53;6,54;43,03;651351
IF_CR_R1_8501009_DIS3_82, SUBCASE 1, Case 1 Time 1.;57;-14,43;-20,25;-11,75;-17,35;-21,69;3,86;16,86;261,41;126,57;37,86;28,00;18,83;261,75;257,75;261,41;126,57;37,86;28,00;-21,69;261,75;257,75;102,91;7,08;5,53;42,96;651351
IF_CR_R1_8501009_DIS1_-55, SUBCASE 1, Case 1 Time 1.;38;-13,85;-19,72;-11,63;-16,97;-21,19;3,59;16,30;256,39;123,68;37,13;27,45;18,40;256,72;252,75;256,39;123,68;37,13;27,45;-21,19;256,72;252,75;100,63;6,93;5,37;42,12;651351
IF_CR_R1_8501009_DIS1_23, SUBCASE 1, Case 1 Time 1.;37;-13,94;-19,74;-11,57;-16,96;-21,18;3,68;16,36;255,71;123,59;37,17;27,48;18,40;256,04;252,08;255,71;123,59;37,17;27,48;-21,18;256,04;252,08;99,38;6,83;5,32;42,01;651351
IF_CR_R1_8501009_DIS1_82, SUBCASE 1, Case 1 Time 1.;39;-14,00;-19,75;-11,53;-16,95;-21,17;3,75;16,40;255,17;123,51;37,20;27,49;18,39;255,50;251,54;255,17;123,51;37,20;27,49;-21,17;255,50;251,54;100,39;6,90;5,33;41,92;651351
IF_IP2_R4_8502005_JAM2M_OUT_-55, SUBCASE 1, Case 1 Time 1.;116;-13,98;-19,63;-11,52;-16,89;-21,09;3,73;16,24;253,75;123,05;36,86;27,26;18,29;254,08;250,15;253,75;123,05;36,86;27,26;-21,09;254,08;250,15;99,78;6,88;5,28;41,69;651351
IF_IP2_R4_8502005_JAM2M_OUT_23, SUBCASE 1, Case 1 Time 1.;115;-13,90;-19,60;-11,52;-16,86;-21,07;3,73;16,22;253,73;122,87;36,86;27,28;18,27;254,06;250,11;253,73;122,87;36,86;27,28;-21,07;254,06;250,11;100,42;6,92;5,34;41,68;651351
IF_IP2_R4_8502005_JAM2M_OUT_82, SUBCASE 1, Case 1 Time 1.;117;-13,84;-19,58;-11,53;-16,85;-21,05;3,73;16,21;253,72;122,75;36,86;27,30;18,26;254,05;250,08;253,72;122,75;36,86;27,30;-21,05;254,05;250,08;99,51;6,85;5,18;41,68;651351
IF_LD_R4_8502001_JAM2M_INSF_82, SUBCASE 1, Case 1 Time 1.;129;-34,26;-27,85;-9,92;-20,44;-26,05;6,05;20,00;245,03;153,96;49,29;32,20;22,92;245,07;248,00;245,03;153,96;49,29;32,20;-26,05;245,07;248,00;115,98;7,99;9,63;41,33;651517
IF_LD_R4_8502001_JAM2M_INSF_23, SUBCASE 1, Case 1 Time 1.;127;-34,16;-27,79;-9,92;-20,41;-26,01;6,13;19,98;244,53;153,74;49,18;32,13;22,89;244,58;247,50;244,53;153,74;49,18;32,13;-26,01;244,58;247,50;115,68;7,98;9,62;41,25;651517
IF_TO_R4_8502005_JAM2_-55, SUBCASE 1, Case 1 Time 1.;83;-21,98;-23,27;-10,76;-18,70;-23,56;4,93;19,74;249,92;138,07;42,15;29,63;20,51;250,23;247,47;249,92;138,07;42,15;29,63;-23,56;250,23;247,47;109,10;7,54;7,27;41,25;651351
IF_TO_R4_8502005_JAM2_23, SUBCASE 1, Case 1 Time 1.;82;-21,92;-23,24;-10,80;-18,68;-23,53;4,92;19,70;249,82;137,89;42,15;29,65;20,50;250,13;247,35;249,82;137,89;42,15;29,65;-23,53;250,13;247,35;109,11;7,53;7,23;41,22;651351
IF_TO_R4_8502005_JAM2_82, SUBCASE 1, Case 1 Time 1.;84;-21,88;-23,22;-10,84;-18,66;-23,51;4,91;19,66;249,73;137,76;42,15;29,67;20,48;250,04;247,23;249,73;137,76;42,15;29,67;-23,51;250,04;247,23;108,83;7,51;7,18;41,21;651351
IF_LD_R4_8502001_JAM2M_INSF_-55, SUBCASE 1, Case 1 Time 1.;128;-33,60;-27,47;-9,77;-20,24;-25,78;6,37;19,77;242,23;152,34;48,63;31,81;22,66;242,27;245,18;242,23;152,34;48,63;31,81;-25,78;242,27;245,18;114,81;7,93;9,48;40,86;651517
IF_TO_R4_8502005_82, SUBCASE 1, Case 1 Time 1.;12;-18,85;-21,41;-10,83;-17,59;-22,10;3,95;17,95;242,40;129,14;39,67;28,33;19,19;242,70;239,56;242,40;129,14;39,67;28,33;-22,10;242,70;239,56;102,37;7,06;6,20;39,93;651351
IF_TO_R4_8502005_23, SUBCASE 1, Case 1 Time 1.;10;-18,78;-21,36;-10,79;-17,57;-22,06;3,94;17,93;242,20;128,94;39,58;28,26;19,15;242,51;239,37;242,20;128,94;39,58;28,26;-22,06;242,51;239,37;102,39;7,07;6,21;39,89;651351
IF_TO_R4_8502005_-55, SUBCASE 1, Case 1 Time 1.;11;-18,69;-21,29;-10,74;-17,53;-22,01;3,92;17,89;241,91;128,67;39,45;28,17;19,10;242,21;239,08;241,91;128,67;39,45;28,17;-22,01;242,21;239,08;102,08;7,06;6,21;39,85;651351
IF_LD_R4_8502001_DIS3_-55, SUBCASE 1, Case 1 Time 1.;71;-19,54;-21,62;-10,63;-17,67;-22,20;4,17;18,21;240,45;129,77;39,90;28,32;19,26;240,75;237,80;240,45;129,77;39,90;28,32;-22,20;240,75;237,80;102,75;7,10;6,46;39,63;651351
IF_LD_R4_8502001_DIS3_23, SUBCASE 1, Case 1 Time 1.;70;-19,55;-21,62;-10,64;-17,66;-22,18;4,17;18,19;240,21;129,64;39,89;28,32;19,25;240,51;237,55;240,21;129,64;39,89;28,32;-22,18;240,51;237,55;102,01;7,04;6,40;39,59;651351
IF_LD_R4_8502001_DIS3_82, SUBCASE 1, Case 1 Time 1.;72;-19,56;-21,62;-10,65;-17,64;-22,17;4,18;18,18;240,01;129,54;39,88;28,32;19,24;240,31;237,36;240,01;129,54;39,88;28,32;-22,17;240,31;237,36;102,57;7,08;6,42;39,56;651351
IF_LD_R4_8502001_82, SUBCASE 1, Case 1 Time 1.;18;-20,65;-22,06;-10,48;-17,85;-22,45;4,63;18,67;239,21;131,26;40,31;28,44;19,49;239,51;236,74;239,21;131,26;40,31;28,44;-22,45;239,51;236,74;103,57;7,15;6,69;39,46;651351
IF_LD_R4_8502001_23, SUBCASE 1, Case 1 Time 1.;16;-20,58;-21,99;-10,43;-17,80;-22,39;4,61;18,62;238,61;130,91;40,18;28,34;19,43;238,90;236,15;238,61;130,91;40,18;28,34;-22,39;238,90;236,15;103,27;7,14;6,70;39,36;651351
IF_LD_R4_8502001_-55, SUBCASE 1, Case 1 Time 1.;17;-20,49;-21,90;-10,36;-17,74;-22,31;4,58;18,56;237,77;130,43;40,00;28,20;19,35;238,07;235,33;237,77;130,43;40,00;28,20;-22,31;238,07;235,33;102,96;7,12;6,68;39,22;651351
IF_TO_R4_8502005_JAM2M_OUT_23, SUBCASE 1, Case 1 Time 1.;121;-13,83;-18,58;-10,57;-15,90;-19,85;3,93;15,59;235,28;115,60;34,83;25,59;17,19;235,58;232,01;235,28;115,60;34,83;25,59;-19,85;235,58;232,01;94,03;6,49;5,12;38,67;651351
IF_TO_R4_8502005_JAM2M_OUT_-55, SUBCASE 1, Case 1 Time 1.;122;-13,91;-18,60;-10,57;-15,92;-19,87;3,92;15,61;235,24;115,74;34,82;25,56;17,20;235,55;232,00;235,24;115,74;34,82;25,56;-19,87;235,55;232,00;93,47;6,46;5,08;38,67;651351
IF_TO_R4_8502005_JAM2M_OUT_82, SUBCASE 1, Case 1 Time 1.;123;-13,77;-18,57;-10,58;-15,89;-19,83;3,93;15,58;235,28;115,49;34,83;25,62;17,18;235,58;231,99;235,28;115,49;34,83;25,62;-19,83;235,58;231,99;93,24;6,43;4,98;38,67;651351
IF_LD_R4_8502001_JAM2_82, SUBCASE 1, Case 1 Time 1.;90;-18,89;-20,89;-10,35;-17,10;-21,48;4,06;17,59;232,70;125,35;38,60;27,44;18,61;232,99;230,09;232,70;125,35;38,60;27,44;-21,48;232,99;230,09;99,11;6,84;6,13;38,35;651351
IF_LD_R4_8502001_JAM2_23, SUBCASE 1, Case 1 Time 1.;88;-18,89;-20,85;-10,28;-17,07;-21,43;4,07;17,57;232,01;125,09;38,49;27,34;18,56;232,30;229,42;232,01;125,09;38,49;27,34;-21,43;232,30;229,42;98,69;6,82;6,13;38,24;651351
IF_LD_R4_8502001_JAM2_-55, SUBCASE 1, Case 1 Time 1.;89;-18,89;-20,79;-10,19;-17,02;-21,37;4,07;17,55;231,07;124,73;38,34;27,20;18,51;231,36;228,52;231,07;124,73;38,34;27,20;-21,37;231,36;228,52;98,63;6,82;6,17;38,09;651351
IF_LD_R2_8502001_JAM2M_INSF_82, SUBCASE 1, Case 1 Time 1.;126;-32,03;-25,74;-9,46;-18,83;-23,95;5,28;18,73;223,02;141,33;44,83;29,07;21,09;223,06;225,81;223,02;141,33;44,83;29,07;-23,95;223,06;225,81;106,82;7,36;9,11;37,64;651517
IF_LD_R2_8502001_JAM2M_INSF_23, SUBCASE 1, Case 1 Time 1.;124;-31,98;-25,69;-9,47;-18,80;-23,91;5,31;18,72;222,49;141,13;44,72;28,98;21,06;222,54;225,29;222,49;141,13;44,72;28,98;-23,91;222,54;225,29;106,43;7,34;9,04;37,55;651517
IF_LD_R2_8502001_JAM2M_INSF_-55, SUBCASE 1, Case 1 Time 1.;125;-31,77;-25,55;-9,44;-18,72;-23,80;5,40;18,64;221,29;140,48;44,47;28,81;20,95;221,33;224,07;221,29;140,48;44,47;28,81;-23,80;221,33;224,07;106,24;7,33;9,09;37,35;651517
IF_LD_R2_8502001_82, SUBCASE 1, Case 1 Time 1.;15;-22,14;-21,98;-9,37;-17,38;-21,89;5,66;19,10;225,39;128,05;39,06;27,04;19,05;225,67;223,52;225,39;128,05;39,06;27,04;-21,89;225,67;223,52;100,70;6,95;7,12;37,25;651351
IF_LD_R2_8502001_23, SUBCASE 1, Case 1 Time 1.;13;-22,05;-21,89;-9,31;-17,33;-21,81;5,63;19,04;224,69;127,63;38,90;26,92;18,99;224,97;222,83;224,69;127,63;38,90;26,92;-21,81;224,97;222,83;100,44;6,93;7,10;37,14;651351
IF_LD_R2_8502001_-55, SUBCASE 1, Case 1 Time 1.;14;-21,93;-21,78;-9,24;-17,25;-21,71;5,58;18,96;223,73;127,05;38,70;26,76;18,89;224,01;221,89;223,73;127,05;38,70;26,76;-21,71;224,01;221,89;99,97;6,91;7,10;36,98;651351
IF_LD_R2_8502001_JAM2_82, SUBCASE 1, Case 1 Time 1.;87;-17,38;-18,66;-8,86;-15,21;-19,06;3,85;15,86;205,01;111,01;34,06;24,02;16,51;205,27;202,79;205,01;111,01;34,06;24,02;-19,06;205,27;202,79;87,75;6,06;5,59;33,80;651351
IF_LD_R2_8502001_JAM2_23, SUBCASE 1, Case 1 Time 1.;85;-17,38;-18,62;-8,80;-15,19;-19,02;3,85;15,85;204,47;110,80;33,97;23,93;16,47;204,72;202,27;204,47;110,80;33,97;23,93;-19,02;204,72;202,27;88,02;6,08;5,64;33,71;651351
IF_LD_R2_8502001_JAM2_-55, SUBCASE 1, Case 1 Time 1.;86;-17,38;-18,57;-8,72;-15,15;-18,97;3,86;15,83;203,73;110,51;33,84;23,81;16,42;203,98;201,55;203,73;110,51;33,84;23,81;-18,97;203,98;201,55;87,38;6,04;5,63;33,59;651351
IF_IP1_R1_8502005_JAM2_-55, SUBCASE 1, Case 1 Time 1.;77;-12,37;-15,23;-7,98;-12,86;-15,99;2,78;13,07;186,02;92,85;27,85;20,06;13,85;186,25;183,61;186,02;92,85;27,85;20,06;-15,99;186,25;183,61;75,13;5,17;4,47;30,60;651351
IF_IP1_R1_8502005_JAM2_23, SUBCASE 1, Case 1 Time 1.;76;-12,25;-15,13;-7,93;-12,77;-15,88;2,75;12,95;184,74;92,16;27,69;19,97;13,75;184,97;182,33;184,74;92,16;27,69;19,97;-15,88;184,97;182,33;76,17;5,23;4,47;30,39;651351
IF_IP1_R1_8502005_JAM2_82, SUBCASE 1, Case 1 Time 1.;78;-12,16;-15,05;-7,88;-12,70;-15,79;2,72;12,87;183,74;91,62;27,58;19,90;13,67;183,97;181,33;183,74;91,62;27,58;19,90;-15,79;183,97;181,33;74,09;5,08;4,34;30,22;651351
IF_IP1_R1_8502005_-55, SUBCASE 1, Case 1 Time 1.;5;-10,56;-14,03;-7,94;-12,07;-14,97;2,96;11,84;179,07;86,72;25,95;18,93;12,93;179,30;176,57;179,07;86,72;25,95;18,93;-14,97;179,30;176,57;70,57;4,85;3,94;29,43;651351
IF_IP1_R1_8502005_23, SUBCASE 1, Case 1 Time 1.;4;-10,64;-14,05;-7,89;-12,06;-14,96;2,91;11,91;178,56;86,70;26,01;18,97;12,93;178,78;176,07;178,56;86,70;26,01;18,97;-14,96;178,78;176,07;72,11;4,95;4,00;29,34;651351
IF_IP1_R1_8502005_82, SUBCASE 1, Case 1 Time 1.;6;-10,71;-14,07;-7,85;-12,06;-14,96;2,87;11,96;178,13;86,67;26,04;18,99;12,93;178,36;175,64;178,13;86,67;26,04;18,99;-14,96;178,36;175,64;70,39;4,83;3,91;29,27;651351
IF_LD_R2_8502001_FS11_-55, SUBCASE 1, Case 1 Time 1.;32;-28,85;-18,70;-8,99;-12,36;-15,77;6,61;16,82;161,54;93,91;30,77;17,74;14,28;161,55;163,08;161,54;93,91;30,77;17,74;-15,77;161,55;163,08;67,49;4,61;7,32;27,18;651517
IF_LD_R2_8502001_FS11_23, SUBCASE 1, Case 1 Time 1.;31;-28,83;-18,72;-8,95;-12,37;-15,78;6,62;16,81;161,17;93,95;30,83;17,81;14,29;161,17;162,72;161,17;93,95;30,83;17,81;-15,78;161,17;162,72;66,81;4,55;7,19;27,12;651517
IF_LD_R2_8502001_FS11_82, SUBCASE 1, Case 1 Time 1.;33;-28,82;-18,73;-8,92;-12,37;-15,79;6,63;16,80;160,89;93,98;30,87;17,86;14,29;160,90;162,47;160,89;93,98;30,87;17,86;-15,79;160,90;162,47;67,57;4,60;7,28;27,08;651517
IF_LD_R2_8502001_DIS3_-55, SUBCASE 1, Case 1 Time 1.;68;-15,24;-15,26;-6,46;-12,26;-15,31;3,76;13,35;160,87;88,99;27,13;18,71;13,28;161,06;159,35;160,87;88,99;27,13;18,71;-15,31;161,06;159,35;70,28;4,85;4,88;26,56;651351
IF_LD_R2_8502001_DIS3_23, SUBCASE 1, Case 1 Time 1.;67;-15,29;-15,28;-6,48;-12,26;-15,31;3,80;13,36;160,65;88,98;27,17;18,74;13,28;160,84;159,13;160,65;88,98;27,17;18,74;-15,31;160,84;159,13;71,03;4,90;4,90;26,52;651351
IF_LD_R2_8502001_DIS3_82, SUBCASE 1, Case 1 Time 1.;69;-15,32;-15,29;-6,49;-12,25;-15,30;3,83;13,37;160,45;88,96;27,19;18,75;13,28;160,64;158,93;160,45;88,96;27,19;18,75;-15,30;160,64;158,93;70,19;4,83;4,85;26,49;651351
IF_IP1_R1_8502005_JAM2M_OUT_-55, SUBCASE 1, Case 1 Time 1.;110;-3,92;-6,80;-7,96;-7,33;-8,87;2,70;8,51;141,76;50,66;14,55;12,31;7,56;141,96;138,85;141,76;50,66;14,55;12,31;-8,87;141,96;138,85;44,29;3,02;0,80;23,14;651351
IF_IP1_R1_8502005_JAM2M_OUT_23, SUBCASE 1, Case 1 Time 1.;109;-3,84;-6,72;-7,92;-7,26;-8,78;2,74;8,49;140,91;50,18;14,45;12,26;7,49;141,11;138,01;140,91;50,18;14,45;12,26;-8,78;141,11;138,01;42,98;2,92;0,72;23,00;651351
IF_IP1_R1_8502005_JAM2M_OUT_82, SUBCASE 1, Case 1 Time 1.;111;-3,78;-6,67;-7,89;-7,21;-8,71;2,77;8,48;140,24;49,81;14,37;12,22;7,44;140,44;137,35;140,24;49,81;14,37;12,22;-8,71;140,44;137,35;43,61;2,96;0,69;22,89;651351
IF_LD_R2_8502001_DIS1_INSF_-55, SUBCASE 1, Case 1 Time 1.;50;-13,54;-13,23;-5,49;-10,62;-13,23;3,54;11,72;137,49;76,76;23,54;16,12;11,46;137,65;136,21;137,49;76,76;23,54;16,12;-13,23;137,65;136,21;60,37;4,17;4,23;22,70;651351
IF_LD_R2_8502001_DIS1_INSF_23, SUBCASE 1, Case 1 Time 1.;49;-13,50;-13,13;-5,45;-10,50;-13,09;3,60;11,63;135,43;75,95;23,38;16,00;11,34;135,60;134,18;135,43;75,95;23,38;16,00;-13,09;135,60;134,18;59,00;4,07;4,11;22,36;651351
IF_LD_R2_8502001_DIS1_INSF_82, SUBCASE 1, Case 1 Time 1.;51;-13,50;-13,09;-5,44;-10,45;-13,03;3,66;11,52;134,46;75,62;23,33;15,96;11,30;134,62;133,21;134,46;75,62;23,33;15,96;-13,03;134,62;133,21;59,37;4,09;4,13;22,20;651351
IF_IP1_R1_8502005_DIS3_-55, SUBCASE 1, Case 1 Time 1.;59;-7,73;-9,61;-5,18;-8,23;-10,15;1,79;8,31;119,68;58,55;17,56;12,62;8,75;119,83;118,05;119,68;58,55;17,56;12,62;-10,15;119,83;118,05;47,54;3,26;2,77;19,67;651351
IF_IP1_R1_8502005_DIS3_23, SUBCASE 1, Case 1 Time 1.;58;-7,83;-9,65;-5,13;-8,23;-10,16;1,76;8,36;119,25;58,61;17,64;12,66;8,76;119,40;117,63;119,25;58,61;17,64;12,66;-10,16;119,40;117,63;48,60;3,33;2,81;19,60;651351
IF_IP1_R1_8502005_DIS3_82, SUBCASE 1, Case 1 Time 1.;60;-7,90;-9,68;-5,09;-8,23;-10,16;1,73;8,36;118,89;58,63;17,69;12,69;8,77;119,04;117,27;118,89;58,63;17,69;12,69;-10,16;119,04;117,27;47,46;3,25;2,75;19,54;651351
IF_IP1_R1_8502005_DIS1_-55, SUBCASE 1, Case 1 Time 1.;41;-7,60;-9,42;-5,08;-8,07;-9,95;1,76;8,16;117,15;57,40;17,27;12,39;8,58;117,30;115,54;117,15;57,40;17,27;12,39;-9,95;117,30;115,54;46,57;3,20;2,71;19,26;651351
IF_IP1_R1_8502005_DIS1_23, SUBCASE 1, Case 1 Time 1.;40;-7,69;-9,46;-5,02;-8,06;-9,95;1,72;8,19;116,59;57,41;17,33;12,43;8,59;116,74;114,99;116,59;57,41;17,33;12,43;-9,95;116,74;114,99;47,56;3,26;2,75;19,17;651351
IF_IP1_R1_8502005_DIS1_82, SUBCASE 1, Case 1 Time 1.;42;-7,77;-9,48;-4,98;-8,06;-9,95;1,69;8,18;116,13;57,40;17,37;12,45;8,59;116,28;114,55;116,13;57,40;17,37;12,45;-9,95;116,28;114,55;46,43;3,18;2,69;19,09;651351
IF_LD_R4_8502001_FS11_82, SUBCASE 1, Case 1 Time 1.;36;-15,86;-11,38;-4,66;-8,09;-10,19;1,10;8,54;93,47;59,78;19,74;12,11;9,03;93,49;94,63;93,47;59,78;19,74;12,11;-10,19;93,49;94,63;43,99;3,01;4,00;15,77;651517
IF_LD_R4_8502001_FS11_23, SUBCASE 1, Case 1 Time 1.;34;-15,88;-11,36;-4,69;-8,08;-10,18;1,10;8,54;93,18;59,72;19,69;12,06;9,02;93,20;94,35;93,18;59,72;19,69;12,06;-10,18;93,20;94,35;44,43;3,04;4,09;15,72;651517
IF_LD_R4_8502001_FS11_-55, SUBCASE 1, Case 1 Time 1.;35;-15,89;-11,34;-4,72;-8,08;-10,17;1,08;8,54;92,80;59,64;19,62;11,99;9,01;92,82;93,97;92,80;59,64;19,62;11,99;-10,17;92,82;93,97;43,91;3,02;4,05;15,66;651517
IF_LD_R4_8502001_DIS1_INSF_-55, SUBCASE 1, Case 1 Time 1.;53;-9,22;-8,92;-3,94;-7,26;-9,01;2,59;7,77;92,27;51,98;16,46;11,26;7,75;92,38;91,29;92,27;51,98;16,46;11,26;-9,01;92,38;91,29;40,44;2,80;2,65;15,22;651351
IF_LD_R4_8502001_DIS1_INSF_23, SUBCASE 1, Case 1 Time 1.;52;-9,31;-8,97;-3,96;-7,26;-9,02;2,67;7,68;91,90;52,06;16,54;11,31;7,77;92,01;90,93;91,90;52,06;16,54;11,31;-9,02;92,01;90,93;40,80;2,81;2,67;15,16;651351
IF_LD_R4_8502001_DIS1_INSF_82, SUBCASE 1, Case 1 Time 1.;54;-9,38;-9,00;-3,97;-7,27;-9,02;2,74;7,62;91,62;52,12;16,61;11,35;7,78;91,73;90,66;91,62;52,12;16,61;11,35;-9,02;91,73;90,66;40,42;2,78;2,63;15,11;651351
IF_TO_R4_8502005_FS11_82, SUBCASE 1, Case 1 Time 1.;30;-9,08;-7,42;-2,73;-5,65;-7,05;1,84;5,24;66,56;40,97;13,61;8,83;6,16;66,57;67,33;66,56;40,97;13,61;8,83;-7,05;66,57;67,33;30,78;2,11;2,28;11,22;651517
IF_TO_R4_8502005_FS11_23, SUBCASE 1, Case 1 Time 1.;28;-8,98;-7,33;-2,68;-5,61;-6,99;1,90;5,21;65,84;40,62;13,45;8,72;6,10;65,85;66,61;65,84;40,62;13,45;8,72;-6,99;65,85;66,61;30,50;2,09;2,27;11,10;651517
IF_TO_R4_8502005_FS11_-55, SUBCASE 1, Case 1 Time 1.;29;-8,84;-7,23;-2,63;-5,55;-6,92;1,97;5,17;64,90;40,15;13,25;8,58;6,03;64,91;65,67;64,90;40,15;13,25;8,58;-6,92;64,91;65,67;30,24;2,08;2,27;10,95;651517
IF_IP2_R4_8502005_FS11_82, SUBCASE 1, Case 1 Time 1.;27;-7,72;-6,66;-2,68;-5,19;-6,45;2,43;4,89;61,41;37,42;12,41;8,19;5,62;61,42;62,11;61,41;37,42;12,41;8,19;-6,45;61,42;62,11;28,35;1,93;1,96;10,35;651517
IF_IP2_R4_8502005_FS11_23, SUBCASE 1, Case 1 Time 1.;25;-7,57;-6,55;-2,64;-5,13;-6,37;2,51;4,87;60,53;36,94;12,22;8,07;5,55;60,54;61,23;60,53;36,94;12,22;8,07;-6,37;60,54;61,23;27,47;1,88;1,88;10,20;651517
IF_IP2_R4_8502005_FS11_-55, SUBCASE 1, Case 1 Time 1.;26;-7,37;-6,41;-2,58;-5,05;-6,27;2,62;4,84;59,37;36,31;11,96;7,90;5,45;59,39;60,06;59,37;36,31;11,96;7,90;-6,27;59,39;60,06;27,62;1,90;1,91;10,01;651517
IF_TO_R4_8502005_DIS1_-55, SUBCASE 1, Case 1 Time 1.;47;-6,11;-5,88;-2,74;-4,83;-5,98;1,80;5,03;60,57;34,42;11,25;7,67;5,14;60,65;59,85;60,57;34,42;11,25;7,67;-5,98;60,65;59,85;26,52;1,83;1,63;9,98;651351
IF_TO_R4_8502005_DIS1_23, SUBCASE 1, Case 1 Time 1.;46;-6,22;-5,94;-2,76;-4,84;-5,99;1,90;4,94;60,22;34,55;11,34;7,73;5,16;60,29;59,50;60,22;34,55;11,34;7,73;-5,99;60,29;59,50;26,50;1,82;1,62;9,92;651351
IF_TO_R4_8502005_DIS1_82, SUBCASE 1, Case 1 Time 1.;48;-6,31;-5,99;-2,77;-4,85;-6,00;1,97;4,88;59,95;34,65;11,41;7,77;5,18;60,02;59,24;59,95;34,65;11,41;7,77;-6,00;60,02;59,24;26,58;1,82;1,63;9,87;651351
IF_IP2_R4_8502005_DIS1_-55, SUBCASE 1, Case 1 Time 1.;44;-5,55;-5,37;-2,53;-4,41;-5,46;1,61;4,64;55,56;31,46;10,35;7,05;4,71;55,63;54,87;55,56;31,46;10,35;7,05;-5,46;55,63;54,87;24,27;1,67;1,47;9,14;651351
IF_IP2_R4_8502005_DIS1_23, SUBCASE 1, Case 1 Time 1.;43;-5,63;-5,40;-2,53;-4,40;-5,44;1,70;4,52;54,81;31,38;10,37;7,06;4,70;54,88;54,13;54,81;31,38;10,37;7,06;-5,44;54,88;54,13;24,58;1,68;1,49;9,02;651351
IF_IP2_R4_8502005_DIS1_82, SUBCASE 1, Case 1 Time 1.;45;-5,70;-5,42;-2,53;-4,38;-5,42;1,77;4,43;54,24;31,32;10,39;7,06;4,69;54,30;53,57;54,24;31,32;10,39;7,06;-5,42;54,30;53,57;24,04;1,64;1,46;8,93;651351
IF_CR_R1_8501009_FS11_82, SUBCASE 1, Case 1 Time 1.;21;-24,76;-1,58;-3,57;-1,28;-1,43;0,19;3,38;42,97;9,44;3,34;3,58;1,39;43,04;41,93;42,97;9,44;-3,57;3,58;-1,43;43,04;41,93;8,23;0,53;-1,11;6,99;651351
IF_CR_R1_8501009_FS11_23, SUBCASE 1, Case 1 Time 1.;19;-25,62;-1,52;-3,60;-1,22;-1,35;0,74;3,44;42,72;9,17;3,21;3,45;1,31;42,80;41,68;42,72;9,17;-3,60;3,45;-1,35;42,80;41,68;9,82;0,64;-0,98;6,95;651351
IF_CR_R1_8501009_FS11_-55, SUBCASE 1, Case 1 Time 1.;20;-26,73;-1,45;-3,64;-1,13;-1,24;1,48;3,65;42,40;8,81;3,03;3,28;1,21;42,48;41,35;42,40;8,81;-3,64;3,28;-1,24;42,48;41,35;7,52;0,49;-1,17;6,89;651351
IF_IP1_R1_8502005_FS11_-55, SUBCASE 1, Case 1 Time 1.;23;-23,12;-4,68;-2,61;-0,47;-0,69;0,06;0,63;13,70;3,78;1,65;0,93;0,61;23,13;23,16;-23,12;-4,68;-2,61;0,93;-0,69;23,13;23,16;-1,24;-0,09;-0,98;3,86;651351
IF_IP1_R1_8502005_FS11_23, SUBCASE 1, Case 1 Time 1.;22;-22,22;-4,08;-2,44;-0,41;-0,60;0,08;1,15;14,07;3,59;1,60;0,89;0,52;22,22;22,24;-22,22;-4,08;-2,44;0,89;-0,60;22,22;22,24;-0,67;-0,06;-0,95;3,71;651351
IF_IP1_R1_8502005_FS11_82, SUBCASE 1, Case 1 Time 1.;24;-21,52;-3,62;-2,30;-0,36;-0,52;0,13;1,29;14,35;3,45;1,56;0,86;0,44;21,52;21,52;-21,52;-3,62;-2,30;0,86;-0,52;21,52;21,52;-0,55;-0,06;-0,93;3,59;651351
IF_IP2_JAM2M_IN_82, SUBCASE 1, Case 1 Time 1.;96;-1,33;-1,04;-0,39;-0,76;-0,95;0,15;0,77;8,68;5,52;1,74;1,10;0,83;8,68;8,79;8,68;5,52;1,74;1,10;-0,95;8,68;8,79;4,16;0,29;0,35;1,46;651517
IF_LD_JAM2M_IN_-55, SUBCASE 1, Case 1 Time 1.;107;-8,40;-5,27;-1,85;-1,12;-0,80;0,28;0,86;1,50;1,05;0,42;0,72;0,90;8,40;8,50;-8,40;-5,27;-1,85;-1,12;0,90;8,40;8,50;-3,79;-0,24;-0,32;1,42;651517
IF_IP2_JAM2M_IN_23, SUBCASE 1, Case 1 Time 1.;94;-1,17;-0,94;-0,36;-0,71;-0,89;0,26;0,72;8,39;5,12;1,58;1,00;0,77;8,40;8,39;8,39;5,12;1,58;1,00;-0,89;8,40;8,39;3,82;0,27;0,32;1,40;651351
IF_IP2_JAM2M_IN_-55, SUBCASE 1, Case 1 Time 1.;95;-0,96;-0,80;-0,31;-0,65;-0,80;0,30;0,70;8,14;4,57;1,35;0,86;0,69;8,15;8,15;8,14;4,57;1,35;0,86;-0,80;8,15;8,15;3,58;0,26;0,30;1,36;651351
IF_LD_JAM2M_IN_23, SUBCASE 1, Case 1 Time 1.;106;-6,97;-4,42;-1,52;-0,93;-0,67;0,11;0,65;1,19;0,85;0,35;0,62;0,76;6,97;7,06;-6,97;-4,42;-1,52;-0,93;0,76;6,97;7,06;-3,21;-0,20;-0,27;1,18;651517
IF_LD_JAM2M_IN_82, SUBCASE 1, Case 1 Time 1.;108;-5,91;-3,79;-1,28;-0,78;-0,57;0,10;0,52;0,96;0,70;0,29;0,54;0,66;5,91;5,99;-5,91;-3,79;-1,28;-0,78;0,66;5,91;5,99;-2,85;-0,18;-0,24;1,00;651517
IF_TO_JAM2M_OUT_-55, SUBCASE 1, Case 1 Time 1.;104;-5,55;-2,34;-0,65;-0,50;-0,35;0,08;0,33;0,23;0,39;0,24;0,33;0,40;5,55;5,51;-5,55;-2,34;-0,65;-0,50;0,40;5,55;5,51;-1,93;-0,14;-0,09;0,92;651351
IF_TO_JAM2M_IN_82, SUBCASE 1, Case 1 Time 1.;102;-0,79;-0,61;-0,23;-0,43;-0,54;0,04;0,45;5,01;3,17;1,00;0,63;0,48;5,01;5,07;5,01;3,17;1,00;0,63;-0,54;5,01;5,07;2,37;0,17;0,20;0,85;651517
IF_TO_JAM2M_OUT_23, SUBCASE 1, Case 1 Time 1.;103;-4,95;-1,72;-0,53;-0,36;-0,26;0,09;0,25;0,15;0,25;0,25;0,25;0,31;4,96;4,92;-4,95;-1,72;-0,53;-0,36;0,31;4,96;4,92;-1,44;-0,11;-0,06;0,82;651351
IF_TO_JAM2M_IN_23, SUBCASE 1, Case 1 Time 1.;100;-0,62;-0,50;-0,19;-0,38;-0,47;0,16;0,39;4,64;2,73;0,82;0,52;0,41;4,65;4,68;4,64;2,73;0,82;0,52;-0,47;4,65;4,68;2,05;0,15;0,18;0,78;651351
IF_IP1_JAM2M_OUT_82, SUBCASE 1, Case 1 Time 1.;93;-4,57;-1,00;-0,54;-0,24;-0,21;0,09;0,26;0,74;0,11;0,30;0,16;0,19;4,58;4,54;-4,57;-1,00;-0,54;-0,24;-0,21;4,58;4,54;-1,04;-0,09;-0,01;0,76;651351
IF_IP1_JAM2M_OUT_23, SUBCASE 1, Case 1 Time 1.;91;-4,54;-1,27;-0,50;-0,28;-0,23;0,07;0,27;0,24;0,15;0,27;0,19;0,23;4,54;4,51;-4,54;-1,27;-0,50;-0,28;0,23;4,54;4,51;0,81;0,04;0,10;0,75;651351
IF_IP1_JAM2M_OUT_-55, SUBCASE 1, Case 1 Time 1.;92;-4,52;-1,64;-0,45;-0,37;-0,32;0,05;0,22;0,11;0,26;0,22;0,23;0,28;4,53;4,51;-4,52;-1,64;-0,45;-0,37;-0,32;4,53;4,51;-1,37;-0,10;-0,04;0,75;651351
IF_TO_JAM2M_OUT_82, SUBCASE 1, Case 1 Time 1.;105;-4,53;-1,27;-0,54;-0,28;-0,19;0,03;0,25;0,14;0,14;0,27;0,20;0,23;4,54;4,50;-4,53;-1,27;-0,54;-0,28;0,23;4,54;4,50;-1,22;-0,10;-0,05;0,75;651351
IF_TO_JAM2M_IN_-55, SUBCASE 1, Case 1 Time 1.;101;-0,39;-0,35;-0,18;-0,31;-0,38;0,08;0,33;4,34;2,13;0,71;0,39;0,32;4,34;4,38;4,34;2,13;0,71;0,39;-0,38;4,34;4,38;1,72;0,14;0,15;0,73;651351
IF_IP2_JAM2M_OUT_-55, SUBCASE 1, Case 1 Time 1.;98;-1,63;-0,90;-0,27;-0,19;-0,19;0,03;0,13;0,18;0,18;0,07;0,12;0,15;1,63;1,68;-1,63;-0,90;-0,27;-0,19;-0,19;1,63;1,68;-0,67;-0,05;-0,04;0,28;651351
IF_IP2_JAM2M_OUT_23, SUBCASE 1, Case 1 Time 1.;97;-0,90;-0,23;-0,25;-0,10;-0,09;0,02;0,04;0,13;0,03;0,05;0,04;0,04;0,90;0,98;-0,90;-0,23;-0,25;-0,10;-0,09;0,90;0,98;-0,12;-0,02;-0,01;0,16;651351
IF_IP2_JAM2M_OUT_82, SUBCASE 1, Case 1 Time 1.;99;-0,37;-0,21;-0,26;-0,09;-0,08;0,02;0,05;0,73;0,26;0,17;0,10;0,05;0,73;0,74;0,73;0,26;-0,26;0,10;-0,08;0,73;0,74;0,12;-0,01;0,00;0,12;651355
Ref CID;Coord Material;;;;;;;;;;;;;;;;;;;;;;;;;;
